# No comment
0
Gamma
            8             8             8
  0.000000000   0.000000000   0.000000000
