EDIFF = 1e-09
ENCUT = 240
IBRION = -1
ISIF = 3
ISMEAR = 0
NELM = 150
NSW = -1
POTIM = 0.01
SIGMA = 0.1
