 num_wann =    48  ! set to NBANDS by VASP

use_bloch_phases = T

begin unit_cell_cart
     6.0583600     0.0000000     0.0000000
     0.0000000     6.0583600     0.0000000
     0.0000000     0.0000000     6.0583600
end unit_cell_cart

begin atoms_cart
In       0.0000000     0.0000000     0.0000000
In       0.0000000     3.0291800     3.0291800
In       3.0291800     0.0000000     3.0291800
In       3.0291800     3.0291800     0.0000000
As       4.5437700     4.5437700     1.5145900
As       4.5437700     1.5145900     4.5437700
As       1.5145900     4.5437700     4.5437700
As       1.5145900     1.5145900     1.5145900
end atoms_cart

mp_grid =     4     4     4

begin kpoints
      0.000000000000      0.000000000000      0.000000000000
      0.250000000000      0.000000000000      0.000000000000
      0.500000000000      0.000000000000      0.000000000000
      0.250000000000      0.250000000000      0.000000000000
      0.500000000000      0.250000000000     -0.000000000000
      0.500000000000      0.500000000000      0.000000000000
      0.250000000000      0.250000000000      0.250000000000
      0.500000000000      0.250000000000      0.250000000000
      0.500000000000      0.500000000000      0.250000000000
      0.500000000000      0.500000000000      0.500000000000
      0.000000000000      0.250000000000      0.000000000000
      0.000000000000      0.000000000000      0.250000000000
      0.000000000000     -0.250000000000      0.000000000000
      0.000000000000      0.000000000000     -0.250000000000
     -0.250000000000      0.000000000000      0.000000000000
      0.000000000000      0.500000000000      0.000000000000
      0.000000000000      0.000000000000      0.500000000000
      0.000000000000      0.250000000000      0.250000000000
      0.250000000000      0.000000000000      0.250000000000
      0.250000000000     -0.250000000000      0.000000000000
      0.250000000000      0.000000000000     -0.250000000000
      0.000000000000     -0.250000000000     -0.250000000000
     -0.250000000000     -0.250000000000      0.000000000000
      0.000000000000     -0.250000000000      0.250000000000
     -0.250000000000      0.000000000000      0.250000000000
     -0.250000000000      0.250000000000      0.000000000000
     -0.250000000000      0.000000000000     -0.250000000000
      0.000000000000      0.250000000000     -0.250000000000
     -0.000000000000      0.500000000000      0.250000000000
      0.250000000000     -0.000000000000      0.500000000000
      0.250000000000     -0.500000000000      0.000000000000
      0.500000000000      0.000000000000     -0.250000000000
     -0.000000000000     -0.250000000000     -0.500000000000
     -0.500000000000     -0.250000000000     -0.000000000000
     -0.250000000000      0.000000000000      0.500000000000
     -0.250000000000      0.500000000000      0.000000000000
      0.000000000000      0.250000000000     -0.500000000000
     -0.000000000000     -0.500000000000     -0.250000000000
     -0.500000000000      0.000000000000      0.250000000000
      0.000000000000      0.500000000000      0.500000000000
      0.500000000000      0.000000000000      0.500000000000
      0.250000000000     -0.250000000000     -0.250000000000
     -0.250000000000     -0.250000000000      0.250000000000
     -0.250000000000      0.250000000000     -0.250000000000
      0.250000000000      0.500000000000      0.250000000000
      0.250000000000      0.250000000000      0.500000000000
      0.250000000000     -0.500000000000     -0.250000000000
      0.500000000000     -0.250000000000     -0.250000000000
      0.250000000000     -0.250000000000     -0.500000000000
     -0.500000000000     -0.250000000000      0.250000000000
     -0.250000000000     -0.500000000000      0.250000000000
     -0.250000000000     -0.250000000000      0.500000000000
     -0.250000000000      0.500000000000     -0.250000000000
     -0.500000000000      0.250000000000     -0.250000000000
     -0.250000000000      0.250000000000     -0.500000000000
      0.250000000000      0.500000000000      0.500000000000
      0.500000000000      0.250000000000      0.500000000000
      0.500000000000     -0.500000000000     -0.250000000000
      0.500000000000     -0.250000000000     -0.500000000000
     -0.250000000000     -0.500000000000      0.500000000000
     -0.250000000000     -0.250000000000     -0.250000000000
     -0.250000000000      0.250000000000      0.250000000000
      0.250000000000      0.250000000000     -0.250000000000
      0.250000000000     -0.250000000000      0.250000000000
end kpoints
