Automatic mesh
0
Gamma
     1     1     2
 0.000 0.000 0.000
