 P S Zn
   1.0
    15.4287990399999995    0.0000000000000000    0.0000000000000000
     0.0000000000000000   15.4287990399999995    0.0000000000000000
     0.0000000000000000    0.0000000000000000    9.0430834800000000
 P S Zn
  16  64  24
Direct
   0.3791257785864236  0.3715223600000000  0.7500000000000000
   0.8784776400000001  0.3715223600000000  0.7500000000000000
   0.3784776400000000  0.8715223599999999  0.7500000000000000
   0.8784776400000001  0.8715223599999999  0.7500000000000000
   0.3715223600000000  0.1215223600000000  0.2500000000000000
   0.8715223599999999  0.1215223600000000  0.2500000000000000
   0.3715223600000000  0.6215223599999999  0.2500000000000000
   0.8715223599999999  0.6215223599999999  0.2500000000000000
   0.1284776400000000  0.3784776400000000  0.2500000000000000
   0.6284776400000001  0.3784776400000000  0.2500000000000000
   0.1284776400000000  0.8784776400000001  0.2500000000000000
   0.6284776400000001  0.8784776400000001  0.2500000000000000
   0.1215223600000000  0.1284776400000000  0.7500000000000000
   0.6215223599999999  0.1284776400000000  0.7500000000000000
   0.1215223600000000  0.6284776400000001  0.7500000000000000
   0.6215223599999999  0.6284776400000001  0.7500000000000000
   0.2415017900000000  0.1240282950000000  0.6405901899999999
   0.7415017900000003  0.1240282950000000  0.6405901899999999
   0.2415017900000000  0.6240282950000000  0.6405901899999999
   0.7415017900000003  0.6240282950000000  0.6405901899999999
   0.1240282950000000  0.2584982100000000  0.3594098100000000
   0.6240282950000000  0.2584982100000000  0.3594098100000000
   0.1240282950000000  0.7584982100000000  0.3594098100000000
   0.6240282950000000  0.7584982100000000  0.3594098100000000
   0.3740282950000000  0.4915017900000000  0.8594098100000001
   0.8740282950000000  0.4915017900000000  0.8594098100000001
   0.3740282950000000  0.9915017900000000  0.8594098100000001
   0.8740282950000000  0.9915017900000000  0.8594098100000001
   0.1259717050000000  0.0084982100000000  0.8594098100000001
   0.6259717050000000  0.0084982100000000  0.8594098100000001
   0.1259717050000000  0.5084982100000000  0.8594098100000001
   0.6259717050000000  0.5084982100000000  0.8594098100000001
   0.0084982100000000  0.3740282950000000  0.1405901900000000
   0.5084982100000000  0.3740282950000000  0.1405901900000000
   0.0084982100000000  0.8740282950000000  0.1405901900000000
   0.5084982100000000  0.8740282950000000  0.1405901900000000
   0.4915017900000000  0.1259717050000000  0.1405901900000000
   0.9915017900000000  0.1259717050000000  0.1405901900000000
   0.4915017900000000  0.6259717050000000  0.1405901900000000
   0.9915017900000000  0.6259717050000000  0.1405901900000000
   0.4853288200000000  0.3833944650000000  0.6231477200000000
   0.9853288200000000  0.3833944650000000  0.6231477200000000
   0.4853288200000000  0.8833944650000001  0.6231477200000000
   0.9853288200000000  0.8833944650000001  0.6231477200000000
   0.3833944650000000  0.0146711800000000  0.3768522800000000
   0.8833944650000001  0.0146711800000000  0.3768522800000000
   0.3833944650000000  0.5146711800000000  0.3768522800000000
   0.8833944650000001  0.5146711800000000  0.3768522800000000
   0.1166055350000000  0.4853288200000000  0.3768522800000000
   0.6166055349999999  0.4853288200000000  0.3768522800000000
   0.1166055350000000  0.9853288200000000  0.3768522800000000
   0.6166055349999999  0.9853288200000000  0.3768522800000000
   0.0146711800000000  0.1166055350000000  0.6231477200000000
   0.5146711800000000  0.1166055350000000  0.6231477200000000
   0.0146711800000000  0.6166055349999999  0.6231477200000000
   0.5146711800000000  0.6166055349999999  0.6231477200000000
   0.3666055350000000  0.2646711800000000  0.8768522800000000
   0.8666055349999999  0.2646711800000000  0.8768522800000000
   0.3666055350000000  0.7646711800000000  0.8768522800000000
   0.8666055349999999  0.7646711800000000  0.8768522800000000
   0.1333944650000000  0.2353288200000000  0.8768522800000000
   0.6333944650000001  0.2353288200000000  0.8768522800000000
   0.1333944650000000  0.7353288200000000  0.8768522800000000
   0.6333944650000001  0.7353288200000000  0.8768522800000000
   0.2353288200000000  0.3666055350000000  0.1231477200000000
   0.7353288200000000  0.3666055350000000  0.1231477200000000
   0.2353288200000000  0.8666055349999999  0.1231477200000000
   0.7353288200000000  0.8666055349999999  0.1231477200000000
   0.2646711800000000  0.1333944650000000  0.1231477200000000
   0.7646711800000000  0.1333944650000000  0.1231477200000000
   0.2646711800000000  0.6333944650000001  0.1231477200000000
   0.7646711800000000  0.6333944650000001  0.1231477200000000
   0.2584982100000000  0.3759717050000000  0.6405901899999999
   0.7584982100000000  0.3759717050000000  0.6405901899999999
   0.2584982100000000  0.8759717050000000  0.6405901899999999
   0.7584982100000000  0.8759717050000000  0.6405901899999999
   0.3759717050000000  0.2415017900000000  0.3594098100000000
   0.8759717050000000  0.2415017900000000  0.3594098100000000
   0.3759717050000000  0.7415017900000003  0.3594098100000000
   0.8759717050000000  0.7415017900000003  0.3594098100000000
   0.0000000000000000  0.2500000000000000  0.9851093300000000
   0.5000000000000000  0.2500000000000000  0.9851093300000000
   0.0000000000000000  0.7500000000000000  0.9851093300000000
   0.5000000000000000  0.7500000000000000  0.9851093300000000
   0.2500000000000000  0.0000000000000000  0.0148906700000000
   0.7500000000000000  0.0000000000000000  0.0148906700000000
   0.2500000000000000  0.5000000000000000  0.0148906700000000
   0.7500000000000000  0.5000000000000000  0.0148906700000000
   0.0000000000000000  0.2500000000000000  0.5148906700000000
   0.5000000000000000  0.2500000000000000  0.5148906700000000
   0.0000000000000000  0.7500000000000000  0.5148906700000000
   0.5000000000000000  0.7500000000000000  0.5148906700000000
   0.2500000000000000  0.0000000000000000  0.4851093299999999
   0.7500000000000000  0.0000000000000000  0.4851093299999999
   0.2500000000000000  0.5000000000000000  0.4851093299999999
   0.7500000000000000  0.5000000000000000  0.4851093299999999
   0.2500000000000000  0.2500000000000000  0.5000000000000000
   0.7500000000000000  0.2500000000000000  0.5000000000000000
   0.2500000000000000  0.7500000000000000  0.5000000000000000
   0.7500000000000000  0.7500000000000000  0.5000000000000000
   0.0000000000000000  0.0000000000000000  0.0000000000000000
   0.5000000000000000  0.0000000000000000  0.0000000000000000
   0.0000000000000000  0.5000000000000000  0.0000000000000000
   0.5000000000000000  0.5000000000000000  0.0000000000000000