SYSTEM = GaAs
ICHARG = 11
EDIFF = 1E-5
LORBIT=11
#LSORBIT = .TRUE.
GGA_COMPAT = .FALSE.
ISMEAR =  0
SIGMA  =  0.05
GGA    = PE
ENCUT = 280.00 eV
#MAGMOM = 6*0.0
NBANDS = 24
LWANNIER90=.TRUE. # uncomment this to make wannierization - read vasp on how this is done
#LWRITE_UNK=.TRUE. # for plotting wannier functions