K-Points
 0
G-centered
 8  8  8
 0  0  0
