num_bands =    24  
num_wann  =    8

begin projections
Ga : s; px; py; pz
As : s; px; py; pz
end projections

hr_plot =.true.
dis_num_iter=100
num_iter=100
!postproc_setup = .true.
iprint=2
!min of outer window
dis_win_min = -10.
dis_win_max = 25.
!inner -
dis_froz_min = 0.
dis_froz_max = 5.
!wvfn_formatted=.true.
bands_plot = .true.

begin kpoint_path
X  0.00000  0.50000  0.50000 G 0.00000  0.00000  0.00000
G  0.00000  0.00000  0.00000 L 0.50000  0.50000  0.50000
end kpoint_path

begin unit_cell_cart
     0.0000000     2.8266250     2.8266250
     2.8266250     0.0000000     2.8266250
     2.8266250     2.8266250     0.0000000
end unit_cell_cart

begin atoms_cart
Ga       0.0000000     0.0000000     0.0000000
As       1.4133125     1.4133125     1.4133125
end atoms_cart

mp_grid =     8     8     8

begin kpoints
      0.000000000000      0.000000000000      0.000000000000
      0.125000000000      0.000000000000      0.000000000000
      0.250000000000      0.000000000000      0.000000000000
      0.375000000000      0.000000000000      0.000000000000
      0.500000000000      0.000000000000      0.000000000000
      0.125000000000      0.125000000000      0.000000000000
      0.250000000000      0.125000000000      0.000000000000
      0.375000000000      0.125000000000      0.000000000000
      0.500000000000      0.125000000000      0.000000000000
     -0.375000000000      0.125000000000      0.000000000000
     -0.250000000000      0.125000000000      0.000000000000
     -0.125000000000      0.125000000000      0.000000000000
      0.250000000000      0.250000000000      0.000000000000
      0.375000000000      0.250000000000      0.000000000000
      0.500000000000      0.250000000000      0.000000000000
     -0.375000000000      0.250000000000      0.000000000000
     -0.250000000000      0.250000000000      0.000000000000
      0.375000000000      0.375000000000      0.000000000000
      0.500000000000      0.375000000000      0.000000000000
     -0.375000000000      0.375000000000      0.000000000000
      0.500000000000      0.500000000000      0.000000000000
      0.375000000000      0.250000000000      0.125000000000
      0.500000000000      0.250000000000      0.125000000000
     -0.375000000000      0.250000000000      0.125000000000
      0.500000000000      0.375000000000      0.125000000000
     -0.375000000000      0.375000000000      0.125000000000
     -0.250000000000      0.375000000000      0.125000000000
     -0.375000000000      0.500000000000      0.125000000000
     -0.250000000000      0.500000000000      0.250000000000
      0.000000000000      0.125000000000      0.000000000000
      0.000000000000      0.000000000000      0.125000000000
     -0.125000000000     -0.125000000000     -0.125000000000
      0.000000000000      0.250000000000      0.000000000000
      0.000000000000      0.000000000000      0.250000000000
     -0.250000000000     -0.250000000000     -0.250000000000
      0.000000000000      0.375000000000      0.000000000000
      0.000000000000      0.000000000000      0.375000000000
     -0.375000000000     -0.375000000000     -0.375000000000
      0.000000000000      0.500000000000      0.000000000000
      0.000000000000      0.000000000000      0.500000000000
     -0.500000000000     -0.500000000000     -0.500000000000
      0.000000000000      0.125000000000      0.125000000000
      0.125000000000      0.000000000000      0.125000000000
     -0.125000000000     -0.125000000000      0.000000000000
     -0.125000000000      0.000000000000     -0.125000000000
      0.000000000000     -0.125000000000     -0.125000000000
      0.000000000000      0.250000000000      0.125000000000
      0.125000000000      0.000000000000      0.250000000000
     -0.125000000000     -0.125000000000      0.125000000000
     -0.250000000000     -0.125000000000     -0.250000000000
      0.125000000000      0.250000000000      0.000000000000
      0.125000000000     -0.125000000000     -0.125000000000
     -0.250000000000     -0.250000000000     -0.125000000000
      0.000000000000      0.125000000000      0.250000000000
     -0.125000000000      0.125000000000     -0.125000000000
     -0.125000000000     -0.250000000000     -0.250000000000
      0.250000000000      0.000000000000      0.125000000000
      0.000000000000      0.375000000000      0.125000000000
      0.125000000000      0.000000000000      0.375000000000
     -0.125000000000     -0.125000000000      0.250000000000
     -0.375000000000     -0.250000000000     -0.375000000000
      0.125000000000      0.375000000000      0.000000000000
      0.250000000000     -0.125000000000     -0.125000000000
     -0.375000000000     -0.375000000000     -0.250000000000
      0.000000000000      0.125000000000      0.375000000000
     -0.125000000000      0.250000000000     -0.125000000000
     -0.250000000000     -0.375000000000     -0.375000000000
      0.375000000000      0.000000000000      0.125000000000
      0.000000000000      0.500000000000      0.125000000000
      0.125000000000      0.000000000000      0.500000000000
     -0.125000000000     -0.125000000000      0.375000000000
     -0.500000000000     -0.375000000000     -0.500000000000
      0.125000000000      0.500000000000      0.000000000000
      0.375000000000     -0.125000000000     -0.125000000000
     -0.500000000000     -0.500000000000     -0.375000000000
      0.000000000000      0.125000000000      0.500000000000
     -0.125000000000      0.375000000000     -0.125000000000
     -0.375000000000     -0.500000000000     -0.500000000000
      0.500000000000      0.000000000000      0.125000000000
      0.000000000000     -0.375000000000      0.125000000000
      0.125000000000      0.000000000000     -0.375000000000
     -0.125000000000     -0.125000000000     -0.500000000000
      0.375000000000      0.500000000000      0.375000000000
      0.125000000000     -0.375000000000      0.000000000000
     -0.500000000000     -0.125000000000     -0.125000000000
      0.375000000000      0.375000000000      0.500000000000
      0.000000000000      0.125000000000     -0.375000000000
     -0.125000000000     -0.500000000000     -0.125000000000
      0.500000000000      0.375000000000      0.375000000000
     -0.375000000000      0.000000000000      0.125000000000
      0.000000000000     -0.250000000000      0.125000000000
      0.125000000000      0.000000000000     -0.250000000000
     -0.125000000000     -0.125000000000     -0.375000000000
      0.250000000000      0.375000000000      0.250000000000
      0.125000000000     -0.250000000000      0.000000000000
     -0.375000000000     -0.125000000000     -0.125000000000
      0.250000000000      0.250000000000      0.375000000000
      0.000000000000      0.125000000000     -0.250000000000
     -0.125000000000     -0.375000000000     -0.125000000000
      0.375000000000      0.250000000000      0.250000000000
     -0.250000000000      0.000000000000      0.125000000000
      0.000000000000     -0.125000000000      0.125000000000
      0.125000000000      0.000000000000     -0.125000000000
     -0.125000000000     -0.125000000000     -0.250000000000
      0.125000000000      0.250000000000      0.125000000000
      0.125000000000     -0.125000000000      0.000000000000
     -0.250000000000     -0.125000000000     -0.125000000000
      0.125000000000      0.125000000000      0.250000000000
      0.000000000000      0.125000000000     -0.125000000000
     -0.125000000000     -0.250000000000     -0.125000000000
      0.250000000000      0.125000000000      0.125000000000
     -0.125000000000      0.000000000000      0.125000000000
      0.000000000000      0.250000000000      0.250000000000
      0.250000000000      0.000000000000      0.250000000000
     -0.250000000000     -0.250000000000      0.000000000000
     -0.250000000000      0.000000000000     -0.250000000000
      0.000000000000     -0.250000000000     -0.250000000000
      0.000000000000      0.375000000000      0.250000000000
      0.250000000000      0.000000000000      0.375000000000
     -0.250000000000     -0.250000000000      0.125000000000
     -0.375000000000     -0.125000000000     -0.375000000000
      0.250000000000      0.375000000000      0.000000000000
      0.125000000000     -0.250000000000     -0.250000000000
     -0.375000000000     -0.375000000000     -0.125000000000
      0.000000000000      0.250000000000      0.375000000000
     -0.250000000000      0.125000000000     -0.250000000000
     -0.125000000000     -0.375000000000     -0.375000000000
      0.375000000000      0.000000000000      0.250000000000
      0.000000000000      0.500000000000      0.250000000000
      0.250000000000      0.000000000000      0.500000000000
     -0.250000000000     -0.250000000000      0.250000000000
     -0.500000000000     -0.250000000000     -0.500000000000
      0.250000000000      0.500000000000      0.000000000000
      0.250000000000     -0.250000000000     -0.250000000000
     -0.500000000000     -0.500000000000     -0.250000000000
      0.000000000000      0.250000000000      0.500000000000
     -0.250000000000      0.250000000000     -0.250000000000
     -0.250000000000     -0.500000000000     -0.500000000000
      0.500000000000      0.000000000000      0.250000000000
      0.000000000000     -0.375000000000      0.250000000000
      0.250000000000      0.000000000000     -0.375000000000
     -0.250000000000     -0.250000000000     -0.625000000000
      0.375000000000      0.625000000000      0.375000000000
      0.250000000000     -0.375000000000      0.000000000000
     -0.625000000000     -0.250000000000     -0.250000000000
      0.375000000000      0.375000000000      0.625000000000
      0.000000000000      0.250000000000     -0.375000000000
     -0.250000000000     -0.625000000000     -0.250000000000
      0.625000000000      0.375000000000      0.375000000000
     -0.375000000000      0.000000000000      0.250000000000
      0.000000000000     -0.250000000000      0.250000000000
      0.250000000000      0.000000000000     -0.250000000000
     -0.250000000000     -0.250000000000     -0.500000000000
      0.250000000000      0.500000000000      0.250000000000
      0.250000000000     -0.250000000000      0.000000000000
     -0.500000000000     -0.250000000000     -0.250000000000
      0.250000000000      0.250000000000      0.500000000000
      0.000000000000      0.250000000000     -0.250000000000
     -0.250000000000     -0.500000000000     -0.250000000000
      0.500000000000      0.250000000000      0.250000000000
     -0.250000000000      0.000000000000      0.250000000000
      0.000000000000      0.375000000000      0.375000000000
      0.375000000000      0.000000000000      0.375000000000
     -0.375000000000     -0.375000000000      0.000000000000
     -0.375000000000      0.000000000000     -0.375000000000
      0.000000000000     -0.375000000000     -0.375000000000
      0.000000000000      0.500000000000      0.375000000000
      0.375000000000      0.000000000000      0.500000000000
     -0.375000000000     -0.375000000000      0.125000000000
     -0.500000000000     -0.125000000000     -0.500000000000
      0.375000000000      0.500000000000      0.000000000000
      0.125000000000     -0.375000000000     -0.375000000000
     -0.500000000000     -0.500000000000     -0.125000000000
      0.000000000000      0.375000000000      0.500000000000
     -0.375000000000      0.125000000000     -0.375000000000
     -0.125000000000     -0.500000000000     -0.500000000000
      0.500000000000      0.000000000000      0.375000000000
      0.000000000000     -0.375000000000      0.375000000000
      0.375000000000      0.000000000000     -0.375000000000
     -0.375000000000     -0.375000000000     -0.750000000000
      0.375000000000      0.750000000000      0.375000000000
      0.375000000000     -0.375000000000      0.000000000000
     -0.750000000000     -0.375000000000     -0.375000000000
      0.375000000000      0.375000000000      0.750000000000
      0.000000000000      0.375000000000     -0.375000000000
     -0.375000000000     -0.750000000000     -0.375000000000
      0.750000000000      0.375000000000      0.375000000000
     -0.375000000000      0.000000000000      0.375000000000
      0.000000000000      0.500000000000      0.500000000000
      0.500000000000      0.000000000000      0.500000000000
      0.125000000000      0.375000000000      0.250000000000
      0.250000000000      0.125000000000      0.375000000000
     -0.250000000000     -0.125000000000      0.125000000000
     -0.375000000000     -0.125000000000     -0.250000000000
     -0.125000000000      0.250000000000      0.125000000000
      0.125000000000      0.250000000000     -0.125000000000
      0.125000000000     -0.125000000000     -0.250000000000
     -0.250000000000     -0.125000000000     -0.375000000000
     -0.250000000000     -0.375000000000     -0.125000000000
      0.125000000000     -0.125000000000      0.250000000000
      0.125000000000     -0.250000000000     -0.125000000000
     -0.125000000000      0.125000000000      0.250000000000
     -0.250000000000      0.125000000000     -0.125000000000
     -0.375000000000     -0.250000000000     -0.125000000000
     -0.125000000000     -0.250000000000     -0.375000000000
      0.250000000000      0.125000000000     -0.125000000000
     -0.125000000000      0.125000000000     -0.250000000000
      0.250000000000     -0.125000000000      0.125000000000
     -0.125000000000     -0.250000000000      0.125000000000
     -0.125000000000     -0.375000000000     -0.250000000000
      0.375000000000      0.125000000000      0.250000000000
      0.250000000000      0.375000000000      0.125000000000
      0.125000000000      0.250000000000      0.375000000000
      0.125000000000      0.500000000000      0.250000000000
      0.250000000000      0.125000000000      0.500000000000
     -0.250000000000     -0.125000000000      0.250000000000
     -0.500000000000     -0.250000000000     -0.375000000000
     -0.125000000000      0.375000000000      0.125000000000
      0.125000000000      0.375000000000     -0.125000000000
      0.250000000000     -0.125000000000     -0.250000000000
     -0.375000000000     -0.250000000000     -0.500000000000
     -0.375000000000     -0.500000000000     -0.250000000000
      0.125000000000     -0.125000000000      0.375000000000
      0.250000000000     -0.250000000000     -0.125000000000
     -0.125000000000      0.125000000000      0.375000000000
     -0.250000000000      0.250000000000     -0.125000000000
     -0.500000000000     -0.375000000000     -0.250000000000
     -0.250000000000     -0.375000000000     -0.500000000000
      0.375000000000      0.125000000000     -0.125000000000
     -0.125000000000      0.250000000000     -0.250000000000
      0.375000000000     -0.125000000000      0.125000000000
     -0.125000000000     -0.250000000000      0.250000000000
     -0.250000000000     -0.500000000000     -0.375000000000
      0.500000000000      0.125000000000      0.250000000000
      0.250000000000      0.500000000000      0.125000000000
      0.125000000000      0.250000000000      0.500000000000
      0.125000000000     -0.375000000000      0.250000000000
      0.250000000000      0.125000000000     -0.375000000000
     -0.250000000000     -0.125000000000     -0.625000000000
      0.375000000000      0.625000000000      0.500000000000
     -0.125000000000     -0.500000000000      0.125000000000
      0.125000000000     -0.500000000000     -0.125000000000
     -0.625000000000     -0.125000000000     -0.250000000000
      0.500000000000      0.625000000000      0.375000000000
      0.500000000000      0.375000000000      0.625000000000
      0.125000000000     -0.125000000000     -0.500000000000
     -0.625000000000     -0.250000000000     -0.125000000000
     -0.125000000000      0.125000000000     -0.500000000000
     -0.250000000000     -0.625000000000     -0.125000000000
      0.375000000000      0.500000000000      0.625000000000
      0.625000000000      0.500000000000      0.375000000000
     -0.500000000000      0.125000000000     -0.125000000000
     -0.125000000000     -0.625000000000     -0.250000000000
     -0.500000000000     -0.125000000000      0.125000000000
     -0.125000000000     -0.250000000000     -0.625000000000
      0.625000000000      0.375000000000      0.500000000000
     -0.375000000000      0.125000000000      0.250000000000
      0.250000000000     -0.375000000000      0.125000000000
      0.125000000000      0.250000000000     -0.375000000000
      0.125000000000      0.500000000000      0.375000000000
      0.375000000000      0.125000000000      0.500000000000
     -0.375000000000     -0.250000000000      0.125000000000
     -0.500000000000     -0.125000000000     -0.375000000000
     -0.125000000000      0.375000000000      0.250000000000
      0.250000000000      0.375000000000     -0.125000000000
      0.125000000000     -0.250000000000     -0.375000000000
     -0.375000000000     -0.125000000000     -0.500000000000
     -0.375000000000     -0.500000000000     -0.125000000000
      0.250000000000     -0.125000000000      0.375000000000
      0.125000000000     -0.375000000000     -0.250000000000
     -0.125000000000      0.250000000000      0.375000000000
     -0.375000000000      0.125000000000     -0.250000000000
     -0.500000000000     -0.375000000000     -0.125000000000
     -0.125000000000     -0.375000000000     -0.500000000000
      0.375000000000      0.250000000000     -0.125000000000
     -0.250000000000      0.125000000000     -0.375000000000
      0.375000000000     -0.125000000000      0.250000000000
     -0.250000000000     -0.375000000000      0.125000000000
     -0.125000000000     -0.500000000000     -0.375000000000
      0.500000000000      0.125000000000      0.375000000000
      0.375000000000      0.500000000000      0.125000000000
      0.125000000000      0.375000000000      0.500000000000
      0.125000000000     -0.375000000000      0.375000000000
      0.375000000000      0.125000000000     -0.375000000000
     -0.375000000000     -0.250000000000     -0.750000000000
      0.375000000000      0.750000000000      0.500000000000
     -0.125000000000     -0.500000000000      0.250000000000
      0.250000000000     -0.500000000000     -0.125000000000
     -0.750000000000     -0.250000000000     -0.375000000000
      0.500000000000      0.750000000000      0.375000000000
      0.500000000000      0.375000000000      0.750000000000
      0.250000000000     -0.125000000000     -0.500000000000
     -0.750000000000     -0.375000000000     -0.250000000000
     -0.125000000000      0.250000000000     -0.500000000000
     -0.375000000000     -0.750000000000     -0.250000000000
      0.375000000000      0.500000000000      0.750000000000
      0.750000000000      0.500000000000      0.375000000000
     -0.500000000000      0.250000000000     -0.125000000000
     -0.250000000000     -0.750000000000     -0.375000000000
     -0.500000000000     -0.125000000000      0.250000000000
     -0.250000000000     -0.375000000000     -0.750000000000
      0.750000000000      0.375000000000      0.500000000000
     -0.375000000000      0.125000000000      0.375000000000
      0.375000000000     -0.375000000000      0.125000000000
      0.125000000000      0.375000000000     -0.375000000000
      0.125000000000     -0.250000000000      0.375000000000
      0.375000000000      0.125000000000     -0.250000000000
     -0.375000000000     -0.250000000000     -0.625000000000
      0.250000000000      0.625000000000      0.375000000000
     -0.125000000000     -0.375000000000      0.250000000000
      0.250000000000     -0.375000000000     -0.125000000000
     -0.625000000000     -0.250000000000     -0.375000000000
      0.375000000000      0.625000000000      0.250000000000
      0.375000000000      0.250000000000      0.625000000000
      0.250000000000     -0.125000000000     -0.375000000000
     -0.625000000000     -0.375000000000     -0.250000000000
     -0.125000000000      0.250000000000     -0.375000000000
     -0.375000000000     -0.625000000000     -0.250000000000
      0.250000000000      0.375000000000      0.625000000000
      0.625000000000      0.375000000000      0.250000000000
     -0.375000000000      0.250000000000     -0.125000000000
     -0.250000000000     -0.625000000000     -0.375000000000
     -0.375000000000     -0.125000000000      0.250000000000
     -0.250000000000     -0.375000000000     -0.625000000000
      0.625000000000      0.250000000000      0.375000000000
     -0.250000000000      0.125000000000      0.375000000000
      0.375000000000     -0.250000000000      0.125000000000
      0.125000000000      0.375000000000     -0.250000000000
      0.125000000000     -0.375000000000      0.500000000000
      0.500000000000      0.125000000000     -0.375000000000
     -0.500000000000     -0.375000000000     -0.875000000000
      0.375000000000      0.875000000000      0.500000000000
     -0.125000000000     -0.500000000000      0.375000000000
      0.375000000000     -0.500000000000     -0.125000000000
      0.500000000000      0.875000000000      0.375000000000
      0.500000000000      0.375000000000      0.875000000000
     -0.875000000000     -0.500000000000     -0.375000000000
     -0.125000000000      0.375000000000     -0.500000000000
     -0.375000000000     -0.875000000000     -0.500000000000
      0.250000000000     -0.250000000000      0.500000000000
      0.500000000000      0.250000000000     -0.250000000000
     -0.500000000000     -0.250000000000     -0.750000000000
      0.250000000000     -0.500000000000     -0.250000000000
     -0.250000000000      0.250000000000     -0.500000000000
     -0.125000000000      0.000000000000      0.000000000000
      0.000000000000     -0.125000000000      0.000000000000
      0.000000000000      0.000000000000     -0.125000000000
      0.125000000000      0.125000000000      0.125000000000
     -0.250000000000      0.000000000000      0.000000000000
      0.000000000000     -0.250000000000      0.000000000000
      0.000000000000      0.000000000000     -0.250000000000
      0.250000000000      0.250000000000      0.250000000000
     -0.375000000000      0.000000000000      0.000000000000
      0.000000000000     -0.375000000000      0.000000000000
      0.000000000000      0.000000000000     -0.375000000000
      0.375000000000      0.375000000000      0.375000000000
     -0.250000000000     -0.125000000000      0.000000000000
      0.000000000000     -0.250000000000     -0.125000000000
     -0.125000000000      0.000000000000     -0.250000000000
      0.125000000000      0.125000000000     -0.125000000000
      0.250000000000      0.125000000000      0.250000000000
     -0.125000000000     -0.250000000000      0.000000000000
     -0.125000000000      0.125000000000      0.125000000000
      0.250000000000      0.250000000000      0.125000000000
      0.000000000000     -0.125000000000     -0.250000000000
      0.125000000000     -0.125000000000      0.125000000000
      0.125000000000      0.250000000000      0.250000000000
     -0.250000000000      0.000000000000     -0.125000000000
     -0.375000000000     -0.125000000000      0.000000000000
      0.000000000000     -0.375000000000     -0.125000000000
     -0.125000000000      0.000000000000     -0.375000000000
      0.125000000000      0.125000000000     -0.250000000000
      0.375000000000      0.250000000000      0.375000000000
     -0.125000000000     -0.375000000000      0.000000000000
     -0.250000000000      0.125000000000      0.125000000000
      0.375000000000      0.375000000000      0.250000000000
      0.000000000000     -0.125000000000     -0.375000000000
      0.125000000000     -0.250000000000      0.125000000000
      0.250000000000      0.375000000000      0.375000000000
     -0.375000000000      0.000000000000     -0.125000000000
     -0.500000000000     -0.125000000000      0.000000000000
      0.000000000000     -0.500000000000     -0.125000000000
     -0.125000000000      0.000000000000     -0.500000000000
      0.125000000000      0.125000000000     -0.375000000000
      0.500000000000      0.375000000000      0.500000000000
     -0.125000000000     -0.500000000000      0.000000000000
     -0.375000000000      0.125000000000      0.125000000000
      0.500000000000      0.500000000000      0.375000000000
      0.000000000000     -0.125000000000     -0.500000000000
      0.125000000000     -0.375000000000      0.125000000000
      0.375000000000      0.500000000000      0.500000000000
     -0.500000000000      0.000000000000     -0.125000000000
      0.375000000000     -0.125000000000      0.000000000000
      0.000000000000      0.375000000000     -0.125000000000
     -0.125000000000      0.000000000000      0.375000000000
      0.125000000000      0.125000000000      0.500000000000
     -0.375000000000     -0.500000000000     -0.375000000000
     -0.125000000000      0.375000000000      0.000000000000
      0.500000000000      0.125000000000      0.125000000000
     -0.375000000000     -0.375000000000     -0.500000000000
      0.000000000000     -0.125000000000      0.375000000000
      0.125000000000      0.500000000000      0.125000000000
     -0.500000000000     -0.375000000000     -0.375000000000
      0.375000000000      0.000000000000     -0.125000000000
      0.250000000000     -0.125000000000      0.000000000000
      0.000000000000      0.250000000000     -0.125000000000
     -0.125000000000      0.000000000000      0.250000000000
      0.125000000000      0.125000000000      0.375000000000
     -0.250000000000     -0.375000000000     -0.250000000000
     -0.125000000000      0.250000000000      0.000000000000
      0.375000000000      0.125000000000      0.125000000000
     -0.250000000000     -0.250000000000     -0.375000000000
      0.000000000000     -0.125000000000      0.250000000000
      0.125000000000      0.375000000000      0.125000000000
     -0.375000000000     -0.250000000000     -0.250000000000
      0.250000000000      0.000000000000     -0.125000000000
     -0.375000000000     -0.250000000000      0.000000000000
      0.000000000000     -0.375000000000     -0.250000000000
     -0.250000000000      0.000000000000     -0.375000000000
      0.250000000000      0.250000000000     -0.125000000000
      0.375000000000      0.125000000000      0.375000000000
     -0.250000000000     -0.375000000000      0.000000000000
     -0.125000000000      0.250000000000      0.250000000000
      0.375000000000      0.375000000000      0.125000000000
      0.000000000000     -0.250000000000     -0.375000000000
      0.250000000000     -0.125000000000      0.250000000000
      0.125000000000      0.375000000000      0.375000000000
     -0.375000000000      0.000000000000     -0.250000000000
     -0.500000000000     -0.250000000000      0.000000000000
      0.000000000000     -0.500000000000     -0.250000000000
     -0.250000000000      0.000000000000     -0.500000000000
      0.250000000000      0.250000000000     -0.250000000000
      0.500000000000      0.250000000000      0.500000000000
     -0.250000000000     -0.500000000000      0.000000000000
     -0.250000000000      0.250000000000      0.250000000000
      0.500000000000      0.500000000000      0.250000000000
      0.000000000000     -0.250000000000     -0.500000000000
      0.250000000000     -0.250000000000      0.250000000000
      0.250000000000      0.500000000000      0.500000000000
     -0.500000000000      0.000000000000     -0.250000000000
      0.375000000000     -0.250000000000      0.000000000000
      0.000000000000      0.375000000000     -0.250000000000
     -0.250000000000      0.000000000000      0.375000000000
      0.250000000000      0.250000000000      0.625000000000
     -0.375000000000     -0.625000000000     -0.375000000000
     -0.250000000000      0.375000000000      0.000000000000
      0.625000000000      0.250000000000      0.250000000000
     -0.375000000000     -0.375000000000     -0.625000000000
      0.000000000000     -0.250000000000      0.375000000000
      0.250000000000      0.625000000000      0.250000000000
     -0.625000000000     -0.375000000000     -0.375000000000
      0.375000000000      0.000000000000     -0.250000000000
     -0.500000000000     -0.375000000000      0.000000000000
      0.000000000000     -0.500000000000     -0.375000000000
     -0.375000000000      0.000000000000     -0.500000000000
      0.375000000000      0.375000000000     -0.125000000000
      0.500000000000      0.125000000000      0.500000000000
     -0.375000000000     -0.500000000000      0.000000000000
     -0.125000000000      0.375000000000      0.375000000000
      0.500000000000      0.500000000000      0.125000000000
      0.000000000000     -0.375000000000     -0.500000000000
      0.375000000000     -0.125000000000      0.375000000000
      0.125000000000      0.500000000000      0.500000000000
     -0.500000000000      0.000000000000     -0.375000000000
     -0.500000000000     -0.250000000000     -0.125000000000
     -0.125000000000     -0.500000000000     -0.250000000000
     -0.250000000000     -0.125000000000     -0.500000000000
      0.250000000000      0.125000000000     -0.250000000000
      0.500000000000      0.250000000000      0.375000000000
      0.125000000000     -0.375000000000     -0.125000000000
     -0.125000000000     -0.375000000000      0.125000000000
     -0.250000000000      0.125000000000      0.250000000000
      0.375000000000      0.250000000000      0.500000000000
      0.375000000000      0.500000000000      0.250000000000
     -0.125000000000      0.125000000000     -0.375000000000
     -0.250000000000      0.250000000000      0.125000000000
      0.125000000000     -0.125000000000     -0.375000000000
      0.250000000000     -0.250000000000      0.125000000000