EDIFFG = -0.0001
ENCUT = 240
IBRION = 2
ISIF = 1
ISMEAR = 0
NSW = 1
SIGMA = 0.1
