# Compound: Si2. Old comment: Si2
  1.0000000000
  0.0000000000   2.7500000000   2.7500000000
  2.7500000000   0.0000000000   2.7500000000
  2.7500000000   2.7500000000   0.0000000000
Si
    2
Direct
 -0.1250000000  -0.1250000000  -0.1250000000
  0.1300000000   0.1300000000   0.1200000000
