  PAW_PBE Cs_sv 08Apr2002
   9.00000000000000
 parameters from PSCTR are:
   VRHFIN =Cs: 5s5p6s
   LEXCH  = PE
   EATOM  =   555.6835 eV,   40.8416 Ry

   TITEL  = PAW_PBE Cs_sv 08Apr2002
   LULTRA =        F    use ultrasoft PP ?
   IUNSCR =        1    unscreen: 0-lin 1-nonlin 2-no
   RPACOR =    2.200    partial core radius
   POMASS =  132.900; ZVAL   =    9.000    mass and valenz
   RCORE  =    2.500    outmost cutoff radius
   RWIGS  =    2.500; RWIGS  =    1.323    wigner-seitz radius (au A)
   ENMAX  =  220.318; ENMIN  =  165.238 eV
   RCLOC  =    2.207    cutoff for local pot
   LCOR   =        T    correct aug charges
   LPAW   =        T    paw PP
   EAUG   =  407.933
   DEXC   =    0.000
   RMAX   =    2.554    core radius for proj-oper
   RAUG   =    1.300    factor for augmentation sphere
   RDEP   =    2.590    radius for radial grids
   RDEPT  =    2.117    core radius for aug-charge

   Atomic configuration
   13 entries
     n  l   j            E        occ.
     1  0  0.50    -35790.1377   2.0000
     2  0  0.50     -5613.6201   2.0000
     2  1  1.50     -5035.0101   6.0000
     3  0  0.50     -1167.0767   2.0000
     3  1  1.50      -980.9754   6.0000
     3  2  2.50      -708.0703  10.0000
     4  0  0.50      -220.2386   2.0000
     4  1  1.50      -160.7596   6.0000
     4  2  2.50       -74.2354  10.0000
     5  0  0.50       -26.7287   2.0000
     6  0  0.50        -2.0862   1.0000
     5  1  1.50       -13.5159   6.0000
     5  2  2.50        -0.4136   0.0000
   Description
     l       E           TYP  RCUT    TYP  RCUT
     0    -26.7287425     23  1.900
     0     -2.0862306     23  1.900
     1    -13.5158719     23  2.500
     1     -2.7211652     23  2.500
     2     -0.4136171     23  2.500
   Error from kinetic energy argument (eV)
   NDATA  =      100
   STEP   =   20.000   1.050
  112.      105.      102.      95.8      92.7      86.6      80.6      77.6
  71.9      66.4      63.7      58.6      53.7      49.0      44.6      40.5
  36.7      33.1      29.8      25.3      22.6      20.2      16.9      15.0
  13.2      10.9      8.92      7.78      6.30      5.06      4.04      3.19
  2.50      1.95      1.50      1.14     0.784     0.583     0.386     0.280
 0.181     0.116     0.759E-01 0.520E-01 0.387E-01 0.318E-01 0.284E-01 0.264E-01
 0.252E-01 0.235E-01 0.212E-01 0.190E-01 0.160E-01 0.130E-01 0.981E-02 0.773E-02
 0.621E-02 0.509E-02 0.456E-02 0.438E-02 0.432E-02 0.421E-02 0.397E-02 0.350E-02
 0.300E-02 0.239E-02 0.187E-02 0.150E-02 0.127E-02 0.120E-02 0.118E-02 0.116E-02
 0.109E-02 0.956E-03 0.781E-03 0.638E-03 0.522E-03 0.457E-03 0.425E-03 0.407E-03
 0.380E-03 0.339E-03 0.293E-03 0.244E-03 0.205E-03 0.179E-03 0.163E-03 0.153E-03
 0.143E-03 0.126E-03 0.103E-03 0.848E-04 0.754E-04 0.742E-04 0.703E-04 0.592E-04
 0.465E-04 0.408E-04 0.398E-04 0.374E-04
END of PSCTR-controll parameters
 local part
   75.5890395431569
  0.19973720E+03  0.19968510E+03  0.19952895E+03  0.19926901E+03  0.19890573E+03
  0.19843973E+03  0.19787181E+03  0.19720293E+03  0.19643423E+03  0.19556698E+03
  0.19460262E+03  0.19354274E+03  0.19238905E+03  0.19114343E+03  0.18980788E+03
  0.18838452E+03  0.18687562E+03  0.18528356E+03  0.18361086E+03  0.18186013E+03
  0.18003411E+03  0.17813563E+03  0.17616761E+03  0.17413308E+03  0.17203514E+03
  0.16987696E+03  0.16766177E+03  0.16539287E+03  0.16307358E+03  0.16070729E+03
  0.15829742E+03  0.15584738E+03  0.15336064E+03  0.15084064E+03  0.14829087E+03
  0.14571476E+03  0.14311578E+03  0.14049734E+03  0.13786284E+03  0.13521565E+03
  0.13255908E+03  0.12989642E+03  0.12723088E+03  0.12456562E+03  0.12190372E+03
  0.11924821E+03  0.11660201E+03  0.11396799E+03  0.11134891E+03  0.10874745E+03
  0.10616618E+03  0.10360758E+03  0.10107403E+03  0.98567786E+02  0.96091013E+02
  0.93645752E+02  0.91233933E+02  0.88857367E+02  0.86517748E+02  0.84216650E+02
  0.81955527E+02  0.79735715E+02  0.77558427E+02  0.75424759E+02  0.73335685E+02
  0.71292066E+02  0.69294643E+02  0.67344044E+02  0.65440783E+02  0.63585265E+02
  0.61777785E+02  0.60018533E+02  0.58307597E+02  0.56644962E+02  0.55030521E+02
  0.53464073E+02  0.51945327E+02  0.50473909E+02  0.49049363E+02  0.47671158E+02
  0.46338691E+02  0.45051290E+02  0.43808221E+02  0.42608690E+02  0.41451850E+02
  0.40336803E+02  0.39262606E+02  0.38228275E+02  0.37232790E+02  0.36275100E+02
  0.35354124E+02  0.34468762E+02  0.33617893E+02  0.32800381E+02  0.32015081E+02
  0.31260842E+02  0.30536510E+02  0.29840932E+02  0.29172958E+02  0.28531448E+02
  0.27915271E+02  0.27323312E+02  0.26754470E+02  0.26207665E+02  0.25681839E+02
  0.25175957E+02  0.24689012E+02  0.24220022E+02  0.23768038E+02  0.23332142E+02
  0.22911445E+02  0.22505096E+02  0.22112276E+02  0.21732203E+02  0.21364127E+02
  0.21007338E+02  0.20661161E+02  0.20324956E+02  0.19998120E+02  0.19680087E+02
  0.19370325E+02  0.19068337E+02  0.18773661E+02  0.18485870E+02  0.18204567E+02
  0.17929387E+02  0.17659999E+02  0.17396097E+02  0.17137405E+02  0.16883674E+02
  0.16634680E+02  0.16390223E+02  0.16150127E+02  0.15914235E+02  0.15682411E+02
  0.15454538E+02  0.15230515E+02  0.15010256E+02  0.14793691E+02  0.14580759E+02
  0.14371414E+02  0.14165618E+02  0.13963341E+02  0.13764561E+02  0.13569261E+02
  0.13377430E+02  0.13189059E+02  0.13004142E+02  0.12822677E+02  0.12644659E+02
  0.12470086E+02  0.12298953E+02  0.12131255E+02  0.11966985E+02  0.11806131E+02
  0.11648680E+02  0.11494614E+02  0.11343912E+02  0.11196549E+02  0.11052493E+02
  0.10911709E+02  0.10774159E+02  0.10639797E+02  0.10508574E+02  0.10380436E+02
  0.10255325E+02  0.10133179E+02  0.10013930E+02  0.98975084E+01  0.97838402E+01
  0.96728478E+01  0.95644509E+01  0.94585668E+01  0.93551104E+01  0.92539948E+01
  0.91551317E+01  0.90584320E+01  0.89638059E+01  0.88711637E+01  0.87804156E+01
  0.86914730E+01  0.86042480E+01  0.85186543E+01  0.84346073E+01  0.83520246E+01
  0.82708261E+01  0.81909345E+01  0.81122752E+01  0.80347772E+01  0.79583727E+01
  0.78829974E+01  0.78085911E+01  0.77350972E+01  0.76624636E+01  0.75906420E+01
  0.75195882E+01  0.74492626E+01  0.73796293E+01  0.73106568E+01  0.72423175E+01
  0.71745879E+01  0.71074481E+01  0.70408820E+01  0.69748771E+01  0.69094244E+01
  0.68445178E+01  0.67801545E+01  0.67163345E+01  0.66530603E+01  0.65903368E+01
  0.65281711E+01  0.64665721E+01  0.64055502E+01  0.63451174E+01  0.62852865E+01
  0.62260714E+01  0.61674862E+01  0.61095459E+01  0.60522651E+01  0.59956587E+01
  0.59397411E+01  0.58845264E+01  0.58300279E+01  0.57762580E+01  0.57232283E+01
  0.56709491E+01  0.56194295E+01  0.55686771E+01  0.55186979E+01  0.54694965E+01
  0.54210755E+01  0.53734360E+01  0.53265774E+01  0.52804970E+01  0.52351908E+01
  0.51906526E+01  0.51468749E+01  0.51038482E+01  0.50615615E+01  0.50200024E+01
  0.49791568E+01  0.49390092E+01  0.48995430E+01  0.48607402E+01  0.48225817E+01
  0.47850475E+01  0.47481168E+01  0.47117678E+01  0.46759786E+01  0.46407265E+01
  0.46059886E+01  0.45717418E+01  0.45379633E+01  0.45046298E+01  0.44717188E+01
  0.44392078E+01  0.44070749E+01  0.43752985E+01  0.43438580E+01  0.43127333E+01
  0.42819053E+01  0.42513556E+01  0.42210672E+01  0.41910237E+01  0.41612104E+01
  0.41316133E+01  0.41022199E+01  0.40730189E+01  0.40440002E+01  0.40151551E+01
  0.39864761E+01  0.39579567E+01  0.39295921E+01  0.39013783E+01  0.38733127E+01
  0.38453937E+01  0.38176208E+01  0.37899946E+01  0.37625167E+01  0.37351896E+01
  0.37080167E+01  0.36810019E+01  0.36541502E+01  0.36274670E+01  0.36009582E+01
  0.35746302E+01  0.35484897E+01  0.35225438E+01  0.34967994E+01  0.34712641E+01
  0.34459449E+01  0.34208493E+01  0.33959844E+01  0.33713571E+01  0.33469742E+01
  0.33228421E+01  0.32989669E+01  0.32753540E+01  0.32520088E+01  0.32289356E+01
  0.32061385E+01  0.31836209E+01  0.31613855E+01  0.31394343E+01  0.31177687E+01
  0.30963894E+01  0.30752964E+01  0.30544892E+01  0.30339663E+01  0.30137258E+01
  0.29937650E+01  0.29740807E+01  0.29546690E+01  0.29355253E+01  0.29166447E+01
  0.28980216E+01  0.28796500E+01  0.28615232E+01  0.28436345E+01  0.28259765E+01
  0.28085419E+01  0.27913226E+01  0.27743109E+01  0.27574986E+01  0.27408774E+01
  0.27244392E+01  0.27081756E+01  0.26920785E+01  0.26761396E+01  0.26603509E+01
  0.26447045E+01  0.26291928E+01  0.26138084E+01  0.25985440E+01  0.25833930E+01
  0.25683489E+01  0.25534056E+01  0.25385574E+01  0.25237992E+01  0.25091261E+01
  0.24945338E+01  0.24800184E+01  0.24655765E+01  0.24512051E+01  0.24369017E+01
  0.24226643E+01  0.24084913E+01  0.23943814E+01  0.23803341E+01  0.23663491E+01
  0.23524265E+01  0.23385668E+01  0.23247709E+01  0.23110402E+01  0.22973762E+01
  0.22837808E+01  0.22702561E+01  0.22568044E+01  0.22434283E+01  0.22301305E+01
  0.22169138E+01  0.22037813E+01  0.21907359E+01  0.21777808E+01  0.21649190E+01
  0.21521538E+01  0.21394881E+01  0.21269252E+01  0.21144678E+01  0.21021189E+01
  0.20898810E+01  0.20777568E+01  0.20657486E+01  0.20538584E+01  0.20420882E+01
  0.20304396E+01  0.20189140E+01  0.20075126E+01  0.19962363E+01  0.19850857E+01
  0.19740612E+01  0.19631629E+01  0.19523906E+01  0.19417438E+01  0.19312218E+01
  0.19208236E+01  0.19105479E+01  0.19003931E+01  0.18903574E+01  0.18804388E+01
  0.18706349E+01  0.18609435E+01  0.18513617E+01  0.18418868E+01  0.18325157E+01
  0.18232455E+01  0.18140729E+01  0.18049945E+01  0.17960070E+01  0.17871069E+01
  0.17782905E+01  0.17695545E+01  0.17608952E+01  0.17523091E+01  0.17437926E+01
  0.17353423E+01  0.17269548E+01  0.17186269E+01  0.17103553E+01  0.17021369E+01
  0.16939690E+01  0.16858487E+01  0.16777735E+01  0.16697408E+01  0.16617484E+01
  0.16537942E+01  0.16458763E+01  0.16379931E+01  0.16301430E+01  0.16223247E+01
  0.16145372E+01  0.16067796E+01  0.15990514E+01  0.15913520E+01  0.15836812E+01
  0.15760391E+01  0.15684259E+01  0.15608417E+01  0.15532873E+01  0.15457632E+01
  0.15382703E+01  0.15308095E+01  0.15233821E+01  0.15159891E+01  0.15086320E+01
  0.15013121E+01  0.14940311E+01  0.14867904E+01  0.14795918E+01  0.14724368E+01
  0.14653273E+01  0.14582650E+01  0.14512514E+01  0.14442882E+01  0.14373772E+01
  0.14305198E+01  0.14237175E+01  0.14169717E+01  0.14102838E+01  0.14036550E+01
  0.13970865E+01  0.13905791E+01  0.13841340E+01  0.13777517E+01  0.13714330E+01
  0.13651782E+01  0.13589877E+01  0.13528617E+01  0.13468000E+01  0.13408027E+01
  0.13348692E+01  0.13289992E+01  0.13231919E+01  0.13174466E+01  0.13117624E+01
  0.13061381E+01  0.13005727E+01  0.12950647E+01  0.12896127E+01  0.12842152E+01
  0.12788704E+01  0.12735768E+01  0.12683323E+01  0.12631351E+01  0.12579832E+01
  0.12528746E+01  0.12478073E+01  0.12427791E+01  0.12377881E+01  0.12328320E+01
  0.12279090E+01  0.12230170E+01  0.12181540E+01  0.12133182E+01  0.12085076E+01
  0.12037205E+01  0.11989552E+01  0.11942101E+01  0.11894837E+01  0.11847745E+01
  0.11800813E+01  0.11754029E+01  0.11707383E+01  0.11660866E+01  0.11614470E+01
  0.11568191E+01  0.11522023E+01  0.11475962E+01  0.11430008E+01  0.11384159E+01
  0.11338416E+01  0.11292782E+01  0.11247260E+01  0.11201855E+01  0.11156571E+01
  0.11111417E+01  0.11066400E+01  0.11021528E+01  0.10976812E+01  0.10932263E+01
  0.10887891E+01  0.10843708E+01  0.10799727E+01  0.10755960E+01  0.10712419E+01
  0.10669117E+01  0.10626067E+01  0.10583281E+01  0.10540773E+01  0.10498552E+01
  0.10456632E+01  0.10415023E+01  0.10373736E+01  0.10332781E+01  0.10292166E+01
  0.10251899E+01  0.10211989E+01  0.10172440E+01  0.10133259E+01  0.10094448E+01
  0.10056011E+01  0.10017949E+01  0.99802627E+00  0.99429509E+00  0.99060117E+00
  0.98694420E+00  0.98332376E+00  0.97973932E+00  0.97619023E+00  0.97267575E+00
  0.96919503E+00  0.96574713E+00  0.96233101E+00  0.95894556E+00  0.95558958E+00
  0.95226182E+00  0.94896095E+00  0.94568562E+00  0.94243445E+00  0.93920602E+00
  0.93599890E+00  0.93281167E+00  0.92964290E+00  0.92649119E+00  0.92335515E+00
  0.92023342E+00  0.91712469E+00  0.91402768E+00  0.91094118E+00  0.90786404E+00
  0.90479517E+00  0.90173357E+00  0.89867835E+00  0.89562867E+00  0.89258383E+00
  0.88954321E+00  0.88650630E+00  0.88347271E+00  0.88044213E+00  0.87741438E+00
  0.87438935E+00  0.87136707E+00  0.86834764E+00  0.86533128E+00  0.86231827E+00
  0.85930902E+00  0.85630402E+00  0.85330383E+00  0.85030911E+00  0.84732057E+00
  0.84433901E+00  0.84136527E+00  0.83840024E+00  0.83544484E+00  0.83250003E+00
  0.82956677E+00  0.82664606E+00  0.82373886E+00  0.82084616E+00  0.81796892E+00
  0.81510807E+00  0.81226454E+00  0.80943921E+00  0.80663291E+00  0.80384643E+00
  0.80108052E+00  0.79833584E+00  0.79561299E+00  0.79291250E+00  0.79023479E+00
  0.78758023E+00  0.78494908E+00  0.78234151E+00  0.77975763E+00  0.77719743E+00
  0.77466082E+00  0.77214764E+00  0.76965763E+00  0.76719046E+00  0.76474571E+00
  0.76232290E+00  0.75992145E+00  0.75754073E+00  0.75518003E+00  0.75283859E+00
  0.75051557E+00  0.74821011E+00  0.74592130E+00  0.74364820E+00  0.74138983E+00
  0.73914521E+00  0.73691336E+00  0.73469329E+00  0.73248400E+00  0.73028454E+00
  0.72809394E+00  0.72591128E+00  0.72373565E+00  0.72156619E+00  0.71940207E+00
  0.71724252E+00  0.71508681E+00  0.71293429E+00  0.71078435E+00  0.70863647E+00
  0.70649019E+00  0.70434514E+00  0.70220102E+00  0.70005760E+00  0.69791473E+00
  0.69577233E+00  0.69363040E+00  0.69148902E+00  0.68934832E+00  0.68720850E+00
  0.68506984E+00  0.68293268E+00  0.68079740E+00  0.67866446E+00  0.67653438E+00
  0.67440769E+00  0.67228502E+00  0.67016697E+00  0.66805423E+00  0.66594747E+00
  0.66384738E+00  0.66175469E+00  0.65967008E+00  0.65759427E+00  0.65552794E+00
  0.65347177E+00  0.65142643E+00  0.64939254E+00  0.64737072E+00  0.64536154E+00
  0.64336553E+00  0.64138320E+00  0.63941498E+00  0.63746128E+00  0.63552242E+00
  0.63359868E+00  0.63169029E+00  0.62979738E+00  0.62792006E+00  0.62605835E+00
  0.62421222E+00  0.62238158E+00  0.62056627E+00  0.61876609E+00  0.61698079E+00
  0.61521005E+00  0.61345351E+00  0.61171075E+00  0.60998133E+00  0.60826475E+00
  0.60656046E+00  0.60486788E+00  0.60318643E+00  0.60151546E+00  0.59985434E+00
  0.59820242E+00  0.59655902E+00  0.59492350E+00  0.59329519E+00  0.59167345E+00
  0.59005765E+00  0.58844717E+00  0.58684142E+00  0.58523982E+00  0.58364182E+00
  0.58204691E+00  0.58045462E+00  0.57886449E+00  0.57727614E+00  0.57568920E+00
  0.57410336E+00  0.57251839E+00  0.57093407E+00  0.56935024E+00  0.56776682E+00
  0.56618375E+00  0.56460102E+00  0.56301868E+00  0.56143683E+00  0.55985559E+00
  0.55827513E+00  0.55669568E+00  0.55511748E+00  0.55354084E+00  0.55196606E+00
  0.55039353E+00  0.54882361E+00  0.54725673E+00  0.54569332E+00  0.54413382E+00
  0.54257870E+00  0.54102843E+00  0.53948346E+00  0.53794426E+00  0.53641129E+00
  0.53488499E+00  0.53336579E+00  0.53185411E+00  0.53035035E+00  0.52885489E+00
  0.52736808E+00  0.52589026E+00  0.52442173E+00  0.52296275E+00  0.52151356E+00
  0.52007437E+00  0.51864532E+00  0.51722654E+00  0.51581810E+00  0.51442005E+00
  0.51303238E+00  0.51165506E+00  0.51028801E+00  0.50893112E+00  0.50758424E+00
  0.50624721E+00  0.50491981E+00  0.50360181E+00  0.50229294E+00  0.50099291E+00
  0.49970140E+00  0.49841808E+00  0.49714256E+00  0.49587448E+00  0.49461343E+00
  0.49335902E+00  0.49211083E+00  0.49086845E+00  0.48963147E+00  0.48839949E+00
  0.48717210E+00  0.48594892E+00  0.48472957E+00  0.48351369E+00  0.48230091E+00
  0.48109092E+00  0.47988340E+00  0.47867804E+00  0.47747458E+00  0.47627276E+00
  0.47507238E+00  0.47387324E+00  0.47267518E+00  0.47147807E+00  0.47028182E+00
  0.46908635E+00  0.46789163E+00  0.46669765E+00  0.46550443E+00  0.46431200E+00
  0.46312045E+00  0.46192984E+00  0.46074031E+00  0.45955199E+00  0.45836504E+00
  0.45717964E+00  0.45599599E+00  0.45481432E+00  0.45363485E+00  0.45245785E+00
  0.45128357E+00  0.45011228E+00  0.44894424E+00  0.44777975E+00  0.44661906E+00
  0.44546244E+00  0.44431017E+00  0.44316250E+00  0.44201968E+00  0.44088195E+00
  0.43974955E+00  0.43862270E+00  0.43750160E+00  0.43638645E+00  0.43527743E+00
  0.43417470E+00  0.43307840E+00  0.43198864E+00  0.43090553E+00  0.42982913E+00
  0.42875949E+00  0.42769666E+00  0.42664062E+00  0.42559138E+00  0.42454890E+00
  0.42351313E+00  0.42248400E+00  0.42146144E+00  0.42044533E+00  0.41943557E+00
  0.41843200E+00  0.41743448E+00  0.41644283E+00  0.41545688E+00  0.41447641E+00
  0.41350121E+00  0.41253108E+00  0.41156577E+00  0.41060506E+00  0.40964871E+00
  0.40869648E+00  0.40774815E+00  0.40680348E+00  0.40586223E+00  0.40492419E+00
  0.40398912E+00  0.40305680E+00  0.40212703E+00  0.40119961E+00  0.40027432E+00
  0.39935100E+00  0.39842946E+00  0.39750954E+00  0.39659112E+00  0.39567405E+00
  0.39475823E+00  0.39384355E+00  0.39292996E+00  0.39201736E+00  0.39110573E+00
  0.39019501E+00  0.38928519E+00  0.38837626E+00  0.38746822E+00  0.38656109E+00
  0.38565491E+00  0.38474972E+00  0.38384560E+00  0.38294261E+00  0.38204086E+00
  0.38114044E+00  0.38024149E+00  0.37934412E+00  0.37844847E+00  0.37755468E+00
  0.37666291E+00  0.37577329E+00  0.37488599E+00  0.37400115E+00  0.37311894E+00
  0.37223952E+00  0.37136304E+00  0.37048967E+00  0.36961956E+00  0.36875288E+00
  0.36788976E+00  0.36703036E+00  0.36617482E+00  0.36532326E+00  0.36447580E+00
  0.36363256E+00  0.36279364E+00  0.36195910E+00  0.36112905E+00  0.36030353E+00
  0.35948261E+00  0.35866632E+00  0.35785471E+00  0.35704779E+00  0.35624558E+00
  0.35544807E+00  0.35465524E+00  0.35386707E+00  0.35308352E+00  0.35230451E+00
  0.35152998E+00  0.35075984E+00  0.34999399E+00  0.34923233E+00  0.34847474E+00
  0.34772109E+00  0.34697126E+00  0.34622509E+00  0.34548245E+00  0.34474318E+00
  0.34400714E+00  0.34327415E+00  0.34254406E+00  0.34181670E+00  0.34109189E+00
  0.34036947E+00  0.33964926E+00  0.33893111E+00  0.33821483E+00  0.33750028E+00
  0.33678729E+00  0.33607574E+00  0.33536547E+00  0.33465636E+00  0.33394828E+00
  0.33324112E+00  0.33253478E+00  0.33182916E+00  0.33112416E+00  0.33041972E+00
  0.32971577E+00  0.32901225E+00  0.32830913E+00  0.32760638E+00  0.32690400E+00
  0.32620198E+00  0.32550035E+00  0.32479914E+00  0.32409840E+00  0.32339818E+00
  0.32269856E+00  0.32199961E+00  0.32130143E+00  0.32060410E+00  0.31990774E+00
  0.31921246E+00  0.31851837E+00  0.31782561E+00  0.31713431E+00  0.31644462E+00
  0.31575667E+00  0.31507061E+00  0.31438660E+00  0.31370478E+00  0.31302531E+00
  0.31234832E+00  0.31167396E+00  0.31100237E+00  0.31033367E+00  0.30966799E+00
  0.30900545E+00  0.30834616E+00  0.30769023E+00  0.30703775E+00  0.30638881E+00
  0.30574349E+00  0.30510186E+00  0.30446398E+00  0.30382987E+00  0.30319957E+00
  0.30257310E+00  0.30195044E+00  0.30133157E+00  0.30071647E+00  0.30010509E+00
  0.29949736E+00  0.29889323E+00  0.29829260E+00  0.29769538E+00  0.29710148E+00
  0.29651078E+00  0.29592316E+00  0.29533849E+00  0.29475662E+00  0.29417742E+00
  0.29360073E+00  0.29302638E+00  0.29245422E+00  0.29188408E+00  0.29131579E+00
  0.29074919E+00  0.29018412E+00  0.28962040E+00  0.28905790E+00  0.28849644E+00
  0.28793590E+00  0.28737613E+00  0.28681699E+00  0.28625836E+00  0.28570012E+00
 gradient corrections used for XC
           5
 core charge-density (partial)
  0.13107258E+01  0.13101875E+01  0.13085741E+01  0.13058891E+01  0.13021386E+01
  0.12973313E+01  0.12914781E+01  0.12845922E+01  0.12766892E+01  0.12677870E+01
  0.12579056E+01  0.12470670E+01  0.12352955E+01  0.12226171E+01  0.12090598E+01
  0.11946531E+01  0.11794286E+01  0.11634190E+01  0.11466586E+01  0.11291831E+01
  0.11110292E+01  0.10922347E+01  0.10728386E+01  0.10528803E+01  0.10324002E+01
  0.10114390E+01  0.99003818E+00  0.96823915E+00  0.94608369E+00  0.92361358E+00
  0.90087051E+00  0.87789600E+00  0.85473124E+00  0.83141698E+00  0.80799344E+00
  0.78450022E+00  0.76097613E+00  0.73745916E+00  0.71398639E+00  0.69059384E+00
  0.66731647E+00  0.64418804E+00  0.62124109E+00  0.59850686E+00  0.57601521E+00
  0.55379463E+00  0.53187213E+00  0.51027327E+00  0.48902207E+00  0.46814100E+00
  0.44765101E+00  0.42757146E+00  0.40792013E+00  0.38871322E+00  0.36996539E+00
  0.35168970E+00  0.33389769E+00  0.31659936E+00  0.29980322E+00  0.28351629E+00
  0.26774416E+00  0.25249103E+00  0.23775972E+00  0.22355173E+00  0.20986729E+00
  0.19670541E+00  0.18406391E+00  0.17193952E+00  0.16032788E+00  0.14922362E+00
  0.13862044E+00  0.12851112E+00  0.11888763E+00  0.10974114E+00  0.10106214E+00
  0.92840427E-01  0.85065237E-01  0.77725248E-01  0.70808667E-01  0.64303276E-01
  0.58196494E-01  0.52475428E-01  0.47126930E-01  0.42137642E-01  0.37494054E-01
  0.33182546E-01  0.29189440E-01  0.25501037E-01  0.22103667E-01  0.18983724E-01
  0.16127706E-01  0.13522249E-01  0.11154162E-01  0.90104589E-02  0.70783836E-02
  0.53454406E-02  0.37994169E-02  0.24284046E-02  0.12208207E-02  0.16542451E-03
 -0.74866716E-03 -0.15319664E-02 -0.21946031E-02 -0.27463160E-02 -0.31964448E-02
 -0.35539254E-02 -0.38272857E-02 -0.40246439E-02 -0.41537078E-02 -0.42217763E-02
 -0.42357419E-02 -0.42020944E-02 -0.41269264E-02 -0.40159395E-02 -0.38744517E-02
 -0.37074061E-02 -0.35193797E-02 -0.33145943E-02 -0.30969267E-02 -0.28699205E-02
 -0.26367983E-02 -0.24004740E-02 -0.21635659E-02 -0.19284096E-02 -0.16970721E-02
 -0.14713652E-02 -0.12528588E-02 -0.10428957E-02 -0.84260445E-03 -0.65291374E-03
 -0.47456563E-03 -0.30812914E-03 -0.15401337E-03 -0.12480456E-04  0.11634184E-03
  0.23244783E-03  0.33594203E-03  0.42702766E-03  0.50599559E-03  0.57321372E-03
  0.62911685E-03  0.67419704E-03  0.70899441E-03  0.73408853E-03  0.75009027E-03
  0.75763417E-03  0.75737130E-03  0.74996273E-03  0.73607341E-03  0.71636656E-03
  0.69149865E-03  0.66211474E-03  0.62884440E-03  0.59229803E-03  0.55306363E-03
  0.51170402E-03  0.46875448E-03  0.42472076E-03  0.38007746E-03  0.33526683E-03
  0.29069779E-03  0.24674539E-03  0.20375052E-03  0.16201981E-03  0.12182595E-03
  0.83408087E-04  0.46972527E-04  0.12693582E-04 -0.19285383E-04 -0.48850778E-04
 -0.75917464E-04 -0.10042733E-03 -0.12234775E-03 -0.14167002E-03 -0.15840767E-03
 -0.17259475E-03 -0.18428410E-03 -0.19354562E-03 -0.20046449E-03 -0.20513941E-03
 -0.20768092E-03 -0.20820967E-03 -0.20685481E-03 -0.20375232E-03 -0.19904355E-03
 -0.19287367E-03 -0.18539034E-03 -0.17674230E-03 -0.16707818E-03 -0.15654531E-03
 -0.14528863E-03 -0.13344974E-03 -0.12116595E-03 -0.10856952E-03 -0.95786904E-04
 -0.82938130E-04 -0.70136274E-04 -0.57486991E-04 -0.45088154E-04 -0.33029563E-04
 -0.21392739E-04 -0.10250791E-04  0.33164346E-06  0.10298395E-04  0.19601686E-04
  0.28202006E-04  0.36067925E-04  0.43175857E-04  0.49509782E-04  0.55060923E-04
  0.59827394E-04  0.63813806E-04  0.67030855E-04  0.69494888E-04  0.71227443E-04
  0.72254787E-04  0.72607439E-04  0.72319686E-04  0.71429100E-04  0.69976061E-04
  0.68003281E-04  0.65555337E-04  0.62678216E-04  0.59418880E-04  0.55824838E-04
  0.51943748E-04  0.47823027E-04  0.43509499E-04  0.39049053E-04  0.34486335E-04
  0.29864464E-04  0.25224771E-04  0.20606573E-04  0.16046967E-04  0.11580656E-04
  0.72397990E-05  0.30538956E-05 -0.95031378E-06 -0.47489131E-05 -0.83208544E-05
 -0.11647977E-04 -0.14715004E-04 -0.17509515E-04 -0.20021902E-04 -0.22245300E-04
 -0.24175511E-04 -0.25810896E-04 -0.27152269E-04 -0.28202764E-04 -0.28967699E-04
 -0.29454430E-04 -0.29672190E-04 -0.29631928E-04 -0.29346139E-04 -0.28828696E-04
 -0.28094669E-04 -0.27160155E-04 -0.26042100E-04 -0.24758128E-04 -0.23326370E-04
 -0.21765300E-04 -0.20093572E-04 -0.18329865E-04 -0.16492739E-04 -0.14600493E-04
 -0.12671031E-04 -0.10721746E-04 -0.87694024E-05 -0.68300345E-05 -0.49188545E-05
 -0.30501701E-05 -0.12373131E-05  0.50742127E-06  0.21728242E-05  0.37488132E-05
  0.52264609E-05  0.65980139E-05  0.78569025E-05  0.89977397E-05  0.10016312E-04
  0.10909562E-04  0.11675562E-04  0.12313480E-04  0.12823540E-04  0.13206973E-04
  0.13465968E-04  0.13603613E-04  0.13623829E-04  0.13531311E-04  0.13331454E-04
  0.13030282E-04  0.12634376E-04  0.12150801E-04  0.11587025E-04  0.10950852E-04
  0.10250339E-04  0.94937303E-05  0.86893797E-05  0.78456838E-05  0.69710138E-05
  0.60736511E-05  0.51617266E-05  0.42431629E-05  0.33256208E-05  0.24164504E-05
  0.15226452E-05  0.65080245E-06 -0.19291333E-06 -0.10028011E-05 -0.17736497E-05
 -0.25007596E-05 -0.31799595E-05 -0.38076182E-05 -0.43806525E-05 -0.48965297E-05
 -0.53532667E-05 -0.57494240E-05 -0.60840961E-05 -0.63568990E-05 -0.65679524E-05
 -0.67178607E-05 -0.68076891E-05 -0.68389390E-05 -0.68135189E-05 -0.67337152E-05
 -0.66021598E-05 -0.64217969E-05 -0.61958487E-05 -0.59277796E-05 -0.56212608E-05
 -0.52801337E-05 -0.49083739E-05 -0.45100553E-05 -0.40893148E-05 -0.36503178E-05
 -0.31972246E-05 -0.27341583E-05 -0.22651738E-05 -0.17942289E-05 -0.13251565E-05
 -0.86163970E-06 -0.40718802E-06  0.34883710E-07  0.46147433E-06  0.86971302E-06
  0.12569736E-05  0.16208864E-05  0.19593479E-05  0.22705279E-05  0.25528742E-05
  0.28051153E-05  0.30262602E-05  0.32155973E-05  0.33726895E-05  0.34973691E-05
  0.35897291E-05  0.36501144E-05  0.36791102E-05  0.36775292E-05  0.36463982E-05
  0.35869422E-05  0.35005691E-05  0.33888516E-05  0.32535106E-05  0.30963958E-05
  0.29194681E-05  0.27247797E-05  0.25144559E-05  0.22906756E-05  0.20556530E-05
  0.18116190E-05  0.15608031E-05  0.13054167E-05  0.10476358E-05  0.78958550E-06
  0.53332526E-06  0.28083468E-06  0.34000786E-07 -0.20539373E-06 -0.43568105E-06
 -0.65531758E-06 -0.86289204E-06 -0.10571323E-05 -0.12369107E-05 -0.14012487E-05
 -0.15493195E-05 -0.16804498E-05 -0.17941202E-05 -0.18899648E-05 -0.19677688E-05
 -0.20274659E-05 -0.20691340E-05 -0.20929904E-05 -0.20993855E-05 -0.20887963E-05
 -0.20618189E-05 -0.20191598E-05 -0.19616275E-05 -0.18901228E-05 -0.18056295E-05
 -0.17092035E-05 -0.16019630E-05 -0.14850780E-05 -0.13597592E-05 -0.12272475E-05
 -0.10888038E-05 -0.94569816E-06 -0.79920002E-06 -0.65056804E-06 -0.50104081E-06
 -0.35182772E-06 -0.20410050E-06 -0.58985105E-07  0.82445618E-07  0.21917879E-06
  0.35026760E-06  0.47483678E-06  0.59208734E-06  0.70130057E-06  0.80184134E-06
  0.89316065E-06  0.97479740E-06  0.10463795E-05  0.11076243E-05  0.11583381E-05
  0.11984152E-05  0.12278362E-05  0.12466661E-05  0.12550506E-05  0.12532136E-05
  0.12414528E-05  0.12201351E-05  0.11896926E-05  0.11506165E-05  0.11034525E-05
  0.10487943E-05  0.98727819E-06  0.91957677E-06  0.84639264E-06  0.76845220E-06
  0.68649937E-06  0.60128926E-06  0.51358207E-06  0.42413698E-06  0.33370634E-06
  0.24302995E-06  0.15282969E-06  0.63804368E-07 -0.23375082E-07 -0.10807007E-06
 -0.18967844E-06 -0.26763820E-06 -0.34143080E-06 -0.41058401E-06 -0.47467439E-06
 -0.53332924E-06 -0.58622823E-06 -0.63310443E-06 -0.67374506E-06 -0.70799168E-06
 -0.73574000E-06 -0.75693931E-06 -0.77159145E-06 -0.77974944E-06 -0.78151577E-06
 -0.77704027E-06 -0.76651778E-06 -0.75018545E-06 -0.72831980E-06 -0.70123361E-06
 -0.66927251E-06 -0.63281148E-06 -0.59225120E-06 -0.54801428E-06 -0.50054138E-06
 -0.45028741E-06 -0.39771756E-06 -0.34330347E-06 -0.28751939E-06 -0.23083843E-06
 -0.17372892E-06 -0.11665088E-06 -0.60052675E-07 -0.43677962E-08  0.49988124E-07
  0.10262010E-06  0.15315635E-06  0.20125061E-06  0.24658422E-06  0.28886786E-06
  0.32784315E-06  0.36328386E-06  0.39499688E-06  0.42282295E-06  0.44663702E-06
  0.46634843E-06  0.48190078E-06  0.49327152E-06  0.50047132E-06  0.50354319E-06
  0.50256138E-06  0.49763003E-06  0.48888165E-06  0.47647544E-06  0.46059539E-06
  0.44144826E-06  0.41926148E-06  0.39428082E-06  0.36676811E-06  0.33699879E-06
  0.30525949E-06  0.27184549E-06  0.23705826E-06  0.20120296E-06  0.16458601E-06
  0.12751262E-06  0.90284523E-07  0.53197657E-07  0.16540026E-07 -0.19410361E-07
 -0.54387413E-07 -0.88138755E-07 -0.12042737E-06 -0.15103307E-06 -0.17975387E-06
 -0.20640708E-06 -0.23083031E-06 -0.25288229E-06 -0.27244345E-06 -0.28941637E-06
 -0.30372606E-06 -0.31531997E-06 -0.32416798E-06 -0.33026206E-06 -0.33361586E-06
 -0.33426411E-06 -0.33226192E-06 -0.32768381E-06 -0.32062279E-06 -0.31118917E-06
 -0.29950934E-06 -0.28572442E-06 -0.26998885E-06 -0.25246890E-06 -0.23334110E-06
 -0.21279064E-06 -0.19100979E-06 -0.16819618E-06 -0.14455122E-06 -0.12027837E-06
 -0.95581621E-07 -0.70663798E-07 -0.45725074E-07 -0.20961451E-07  0.34366681E-08
  0.27285839E-07  0.50410846E-07  0.72645889E-07  0.93835667E-07  0.11383636E-06
  0.13251649E-06  0.14975769E-06  0.16545536E-06  0.17951912E-06  0.19187330E-06
  0.20245713E-06  0.21122498E-06  0.21814630E-06  0.22320562E-06  0.22640231E-06
  0.22775029E-06  0.22727760E-06  0.22502589E-06  0.22104984E-06  0.21541640E-06
  0.20820410E-06  0.19950213E-06  0.18940944E-06  0.17803379E-06  0.16549073E-06
  0.15190251E-06  0.13739702E-06  0.12210668E-06  0.10616732E-06  0.89717023E-07
  0.72895061E-07  0.55840745E-07  0.38692361E-07  0.21586116E-07  0.46551221E-08
 -0.11971575E-07 -0.28169915E-07 -0.43821684E-07 -0.58815315E-07 -0.73046620E-07
 -0.86419449E-07 -0.98846277E-07 -0.11024871E-06 -0.12055790E-06 -0.12971490E-06
 -0.13767094E-06 -0.14438756E-06 -0.14983674E-06 -0.15400089E-06 -0.15687278E-06
 -0.15845542E-06 -0.15876179E-06 -0.15781457E-06 -0.15564576E-06 -0.15229627E-06
 -0.14781539E-06 -0.14226028E-06 -0.13569535E-06 -0.12819162E-06 -0.11982606E-06
 -0.11068083E-06 -0.10084261E-06 -0.90401767E-07 -0.79451634E-07 -0.68087703E-07
 -0.56406851E-07 -0.44506557E-07 -0.32484136E-07 -0.20435987E-07 -0.84568601E-08
  0.33608463E-08  0.14927757E-07  0.26158156E-07  0.36970583E-07  0.47288386E-07
  0.57040221E-07  0.66160508E-07  0.74589829E-07  0.82275274E-07  0.89170727E-07
  0.95237099E-07  0.10044249E-06  0.10476233E-06  0.10817937E-06  0.11068375E-06
  0.11227291E-06  0.11295143E-06  0.11273095E-06  0.11162987E-06  0.10967310E-06
  0.10689177E-06  0.10332287E-06  0.99008823E-07  0.93997072E-07  0.88339634E-07
  0.82092593E-07  0.75315595E-07  0.68071324E-07  0.60424952E-07  0.52443594E-07
  0.44195748E-07  0.35750738E-07  0.27178164E-07  0.18547351E-07  0.99268219E-08
  0.13837765E-08 -0.70164052E-08 -0.15210638E-07 -0.23138578E-07 -0.30743045E-07
 -0.37970404E-07 -0.44770925E-07 -0.51099091E-07 -0.56913882E-07 -0.62179008E-07
 -0.66863111E-07 -0.70939916E-07 -0.74388346E-07 -0.77192594E-07 -0.79342150E-07
 -0.80831790E-07 -0.81661522E-07 -0.81836494E-07 -0.81366863E-07 -0.80267625E-07
 -0.78558420E-07 -0.76263291E-07 -0.73410422E-07 -0.70031849E-07 -0.66163139E-07
 -0.61843059E-07 -0.57113212E-07 -0.52017670E-07 -0.46602583E-07 -0.40915792E-07
 -0.35006424E-07 -0.28924486E-07 -0.22720466E-07 -0.16444933E-07 -0.10148139E-07
 -0.38796363E-08  0.23120938E-08  0.83800002E-08  0.14278803E-07  0.19965312E-07
  0.25398732E-07  0.30540931E-07  0.35356698E-07  0.39813959E-07  0.43883980E-07
  0.47541528E-07  0.50765011E-07  0.53536580E-07  0.55842208E-07  0.57671733E-07
  0.59018869E-07  0.59881194E-07  0.60260101E-07  0.60160722E-07  0.59591830E-07
  0.58565704E-07  0.57097980E-07  0.55207468E-07  0.52915960E-07  0.50248006E-07
  0.47230678E-07  0.43893321E-07  0.40267283E-07  0.36385643E-07  0.32282921E-07
  0.27994790E-07  0.23557780E-07  0.19008976E-07  0.14385726E-07  0.97253434E-08
  0.50648202E-08  0.44054349E-09 -0.41119764E-08 -0.85583672E-08 -0.12865643E-07
 -0.17002439E-07 -0.20939225E-07 -0.24648509E-07 -0.28105015E-07 -0.31285844E-07
 -0.34170615E-07 -0.36741577E-07 -0.38983711E-07 -0.40884799E-07 -0.42435473E-07
 -0.43629245E-07 -0.44462508E-07 -0.44934520E-07 -0.45047362E-07 -0.44805877E-07
 -0.44217590E-07 -0.43292606E-07 -0.42043489E-07 -0.40485127E-07 -0.38634578E-07
 -0.36510905E-07 -0.34134995E-07 -0.31529369E-07 -0.28717978E-07 -0.25726000E-07
 -0.22579620E-07 -0.19305815E-07 -0.15932130E-07 -0.12486453E-07 -0.89967994E-08
 -0.54910859E-08 -0.19969195E-08  0.14586138E-08  0.48491504E-08  0.81492427E-08
  0.11334543E-07  0.14381973E-07  0.17269889E-07  0.19978218E-07  0.22488601E-07
  0.24784499E-07  0.26851299E-07  0.28676395E-07  0.30249257E-07  0.31561479E-07
  0.32606813E-07  0.33381183E-07  0.33882686E-07  0.34111569E-07  0.34070199E-07
  0.33763009E-07  0.33196434E-07  0.32378829E-07  0.31320377E-07  0.30032980E-07
  0.28530141E-07  0.26826837E-07  0.24939376E-07  0.22885257E-07  0.20683010E-07
  0.18352037E-07  0.15912454E-07  0.13384919E-07  0.10790462E-07  0.81503225E-08
  0.54857760E-08  0.28179705E-08  0.16776390E-09 -0.24444336E-08 -0.49988115E-08
 -0.74763034E-08 -0.98587244E-08 -0.12128899E-07 -0.14270779E-07 -0.16269553E-07
 -0.18111741E-07 -0.19785281E-07 -0.21279600E-07 -0.22585676E-07 -0.23696085E-07
 -0.24605033E-07 -0.25308380E-07 -0.25803645E-07 -0.26090004E-07 -0.26168271E-07
 -0.26040864E-07 -0.25711770E-07 -0.25186485E-07 -0.24471953E-07 -0.23576488E-07
 -0.22509694E-07 -0.21282366E-07 -0.19906393E-07 -0.18394651E-07 -0.16760884E-07
 -0.15019587E-07 -0.13185884E-07 -0.11275402E-07 -0.93041385E-08 -0.72883353E-08
 -0.52443483E-08 -0.31885183E-08 -0.11370448E-08  0.89413800E-09  0.28894809E-08
  0.48339352E-08  0.67130621E-08  0.85131363E-08  0.10221242E-07  0.11825364E-07
  0.13314462E-07  0.14678552E-07  0.15908760E-07  0.16997381E-07  0.17937918E-07
  0.18725119E-07  0.19354999E-07  0.19824852E-07  0.20133257E-07  0.20280066E-07
  0.20266393E-07  0.20094584E-07  0.19768182E-07  0.19291884E-07  0.18671488E-07
  0.17913831E-07  0.17026725E-07  0.16018879E-07  0.14899822E-07  0.13679815E-07
  0.12369763E-07  0.10981121E-07  0.95257960E-08  0.80160519E-08  0.64644057E-08
  0.48835285E-08  0.32861447E-08  0.16849326E-08  0.92426459E-10 -0.14790788E-08
 -0.30176198E-08 -0.45116529E-08 -0.59501384E-08 -0.73226190E-08 -0.86192934E-08
 -0.98310832E-08 -0.10949694E-07 -0.11967668E-07 -0.12878432E-07 -0.13676336E-07
 -0.14356685E-07 -0.14915759E-07 -0.15350835E-07 -0.15660190E-07 -0.15843102E-07
 -0.15899843E-07 -0.15831662E-07 -0.15640763E-07 -0.15330276E-07 -0.14904220E-07
 -0.14367457E-07 -0.13725648E-07 -0.12985193E-07 -0.12153176E-07 -0.11237299E-07
 -0.10245813E-07 -0.91874467E-08 -0.80713360E-08 -0.69069431E-08 -0.57039807E-08
 -0.44723336E-08 -0.32219786E-08 -0.19629069E-08 -0.70504557E-09  0.54181838E-09
  0.17681121E-08  0.29645487E-08  0.41221952E-08  0.52325374E-08  0.62875408E-08
  0.72797063E-08  0.82021215E-08  0.90485070E-08  0.98132565E-08  0.10491472E-07
  0.11078991E-07  0.11572414E-07  0.11969113E-07  0.12267250E-07  0.12465776E-07
  0.12564430E-07  0.12563733E-07  0.12464971E-07  0.12270175E-07  0.11982100E-07
  0.11604187E-07  0.11140536E-07  0.10595857E-07  0.99754337E-08  0.92850688E-08
  0.85310357E-08  0.77200226E-08  0.68590755E-08  0.59555392E-08  0.50169959E-08
  0.40512036E-08  0.30660337E-08  0.20694082E-08  0.10692377E-08  0.73360295E-10
 -0.91051886E-09 -0.18748853E-08 -0.28124712E-08 -0.37163089E-08 -0.45797811E-08
 -0.53966679E-08 -0.61611898E-08 -0.68680476E-08 -0.75124569E-08 -0.80901791E-08
 -0.85975476E-08 -0.90314887E-08 -0.93895384E-08 -0.96698538E-08 -0.98712196E-08
 -0.99930498E-08 -0.10035384E-07 -0.99988804E-08 -0.98848014E-08 -0.96949975E-08
 -0.94318853E-08 -0.90984216E-08 -0.86980738E-08 -0.82347866E-08 -0.77129457E-08
 -0.71373379E-08 -0.65131093E-08 -0.58457210E-08 -0.51409023E-08 -0.44046035E-08
 -0.36429465E-08 -0.28621756E-08 -0.20686071E-08 -0.12685796E-08 -0.46840447E-09
  0.32568290E-09  0.11075705E-08  0.18713157E-08  0.26111893E-08  0.33217176E-08
  0.39977215E-08  0.46343534E-08  0.52271305E-08  0.57719657E-08  0.62651941E-08
  0.67035964E-08  0.70844189E-08  0.74053885E-08  0.76647256E-08  0.78611509E-08
  0.79938901E-08  0.80626734E-08  0.80677318E-08  0.80097890E-08  0.78900502E-08
 kinetic energy density (partial)
  0.17089644E+03  0.17082732E+03  0.17062009E+03  0.17027524E+03  0.16979352E+03
  0.16917602E+03  0.16842411E+03  0.16753947E+03  0.16652405E+03  0.16538011E+03
  0.16411016E+03  0.16271699E+03  0.16120365E+03  0.15957343E+03  0.15782984E+03
  0.15597665E+03  0.15401780E+03  0.15195745E+03  0.14979994E+03  0.14754976E+03
  0.14521158E+03  0.14279019E+03  0.14029050E+03  0.13771753E+03  0.13507641E+03
  0.13237232E+03  0.12961049E+03  0.12679623E+03  0.12393485E+03  0.12103166E+03
  0.11809200E+03  0.11512116E+03  0.11212441E+03  0.10910696E+03  0.10607397E+03
  0.10303053E+03  0.99981610E+02  0.96932108E+02  0.93886795E+02  0.90850322E+02
  0.87827205E+02  0.84821816E+02  0.81838373E+02  0.78880935E+02  0.75953391E+02
  0.73059456E+02  0.70202662E+02  0.67386359E+02  0.64613703E+02  0.61887660E+02
  0.59210997E+02  0.56586284E+02  0.54015891E+02  0.51501989E+02  0.49046547E+02
  0.46651338E+02  0.44317935E+02  0.42047716E+02  0.39841868E+02  0.37701386E+02
  0.35627081E+02  0.33619583E+02  0.31679343E+02  0.29806644E+02  0.28001601E+02
  0.26264169E+02  0.24594150E+02  0.22991199E+02  0.21454830E+02  0.19984424E+02
  0.18579236E+02  0.17238403E+02  0.15960948E+02  0.14745793E+02  0.13591763E+02
  0.12497592E+02  0.11461935E+02  0.10483374E+02  0.95604224E+01  0.86915366E+01
  0.78751206E+01  0.71095340E+01  0.63930987E+01  0.57241059E+01  0.51008223E+01
  0.45214968E+01  0.39843663E+01  0.34876618E+01  0.30296138E+01  0.26084579E+01
  0.22224394E+01  0.18698186E+01  0.15488752E+01  0.12579123E+01  0.99526046E+00
  0.75928129E+00  0.54837087E+00  0.36096277E+00  0.19553076E+00  0.50591356E-01
 -0.75294047E-01 -0.18351721E+00 -0.27542142E+00 -0.35230009E+00 -0.41539563E+00
 -0.46589856E+00 -0.50494687E+00 -0.53362554E+00 -0.55296641E+00 -0.56394810E+00
 -0.56749627E+00 -0.56448393E+00 -0.55573206E+00 -0.54201026E+00 -0.52403764E+00
 -0.50248380E+00 -0.47796999E+00 -0.45107031E+00 -0.42231309E+00 -0.39218229E+00
 -0.36111905E+00 -0.32952325E+00 -0.29775519E+00 -0.26613725E+00 -0.23495567E+00
 -0.20446229E+00 -0.17487634E+00 -0.14638626E+00 -0.11915147E+00 -0.93304224E-01
 -0.68951358E-01 -0.46176078E-01 -0.25039707E-01 -0.55834005E-02  0.12170173E-01
  0.28215192E-01  0.42561093E-01  0.55231024E-01  0.66260359E-01  0.75695263E-01
  0.83591327E-01  0.90012252E-01  0.95028609E-01  0.98716660E-01  0.10115724E+00
  0.10243473E+00  0.10263604E+00  0.10184976E+00  0.10016527E+00  0.97671983E-01
  0.94458647E-01  0.90612689E-01  0.86219645E-01  0.81362642E-01  0.76121938E-01
  0.70574535E-01  0.64793827E-01  0.58849321E-01  0.52806395E-01  0.46726117E-01
  0.40665101E-01  0.34675412E-01  0.28804511E-01  0.23095233E-01  0.17585812E-01
  0.12309924E-01  0.72967694E-02  0.25711829E-02 -0.18462401E-02 -0.59389883E-02
 -0.96944641E-02 -0.13103795E-01 -0.16161634E-01 -0.18865942E-01 -0.21217771E-01
 -0.23221031E-01 -0.24882258E-01 -0.26210376E-01 -0.27216457E-01 -0.27913487E-01
 -0.28316128E-01 -0.28440487E-01 -0.28303891E-01 -0.27924665E-01 -0.27321920E-01
 -0.26515351E-01 -0.25525037E-01 -0.24371265E-01 -0.23074345E-01 -0.21654458E-01
 -0.20131497E-01 -0.18524935E-01 -0.16853692E-01 -0.15136025E-01 -0.13389422E-01
 -0.11630518E-01 -0.98750107E-02 -0.81376016E-02 -0.64319368E-02 -0.47705671E-02
 -0.31649157E-02 -0.16252573E-02 -0.16070648E-03  0.12207832E-02  0.25124126E-02
  0.37085211E-02  0.48045632E-02  0.57970786E-02  0.66836548E-02  0.74628851E-02
  0.81343206E-02  0.86984179E-02  0.91564831E-02  0.95106128E-02  0.97636319E-02
  0.99190299E-02  0.99808956E-02  0.99538511E-02  0.98429852E-02  0.96537871E-02
  0.93920812E-02  0.90639620E-02  0.86757316E-02  0.82338385E-02  0.77448185E-02
  0.72152391E-02  0.66516449E-02  0.60605085E-02  0.54481825E-02  0.48208559E-02
  0.41845143E-02  0.35449037E-02  0.29074969E-02  0.22774659E-02  0.16596557E-02
  0.10585642E-02  0.47832373E-03 -0.77312033E-04 -0.60497848E-03 -0.11017067E-02
 -0.15649267E-02 -0.19924676E-02 -0.23825545E-02 -0.27338026E-02 -0.30452088E-02
 -0.33161406E-02 -0.35463224E-02 -0.37358206E-02 -0.38850259E-02 -0.39946348E-02
 -0.40656287E-02 -0.40992529E-02 -0.40969939E-02 -0.40605558E-02 -0.39918370E-02
 -0.38929060E-02 -0.37659765E-02 -0.36133839E-02 -0.34375604E-02 -0.32410123E-02
 -0.30262960E-02 -0.27959960E-02 -0.25527034E-02 -0.22989950E-02 -0.20374136E-02
 -0.17704500E-02 -0.15005257E-02 -0.12299765E-02 -0.96103903E-03 -0.69583665E-03
 -0.43636853E-03 -0.18449927E-03  0.58049728E-04  0.28970738E-03  0.50905862E-03
  0.71484863E-03  0.90598564E-03  0.10815424E-02  0.12407562E-02  0.13830279E-02
  0.15079194E-02  0.16151499E-02  0.17045922E-02  0.17762659E-02  0.18303321E-02
  0.18670856E-02  0.18869469E-02  0.18904537E-02  0.18782519E-02  0.18510859E-02
  0.18097885E-02  0.17552709E-02  0.16885125E-02  0.16105498E-02  0.15224665E-02
  0.14253829E-02  0.13204456E-02  0.12088175E-02  0.10916678E-02  0.97016306E-03
  0.84545763E-03  0.71868552E-03  0.59095212E-03  0.46332674E-03  0.33683566E-03
  0.21245583E-03  0.91109114E-04 -0.26342711E-04 -0.13910237E-03 -0.24644082E-03
 -0.34770027E-03 -0.44229657E-03 -0.52972099E-03 -0.60954120E-03 -0.68140180E-03
 -0.74502409E-03 -0.80020538E-03 -0.84681765E-03 -0.88480571E-03 -0.91418490E-03
 -0.93503833E-03 -0.94751362E-03 -0.95181939E-03 -0.94822134E-03 -0.93703801E-03
 -0.91863638E-03 -0.89342718E-03 -0.86186006E-03 -0.82441867E-03 -0.78161561E-03
 -0.73398737E-03 -0.68208927E-03 -0.62649044E-03 -0.56776887E-03 -0.50650654E-03
 -0.44328480E-03 -0.37867975E-03 -0.31325802E-03 -0.24757263E-03 -0.18215915E-03
 -0.11753214E-03 -0.54181886E-04  0.74285938E-05  0.66866206E-04  0.12373011E-03
  0.17765375E-03  0.22830647E-03  0.27539492E-03  0.31866401E-03  0.35789761E-03
  0.39291886E-03  0.42359026E-03  0.44981333E-03  0.47152814E-03  0.48871236E-03
  0.50138025E-03  0.50958125E-03  0.51339846E-03  0.51294682E-03  0.50837115E-03
  0.49984403E-03  0.48756354E-03  0.47175085E-03  0.45264772E-03  0.43051395E-03
  0.40562474E-03  0.37826807E-03  0.34874196E-03  0.31735192E-03  0.28440824E-03
  0.25022342E-03  0.21510970E-03  0.17937662E-03  0.14332864E-03  0.10726300E-03
  0.71467592E-04  0.36219013E-04  0.17807764E-05 -0.31598330E-04 -0.63685720E-04
 -0.94266312E-04 -0.12314365E-03 -0.15014086E-03 -0.17510141E-03 -0.19788967E-03
 -0.21839138E-03 -0.23651381E-03 -0.25218584E-03 -0.26535787E-03 -0.27600149E-03
 -0.28410910E-03 -0.28969330E-03 -0.29278617E-03 -0.29343846E-03 -0.29171857E-03
 -0.28771153E-03 -0.28151779E-03 -0.27325201E-03 -0.26304170E-03 -0.25102588E-03
 -0.23735360E-03 -0.22218252E-03 -0.20567741E-03 -0.18800863E-03 -0.16935067E-03
 -0.14988066E-03 -0.12977689E-03 -0.10921740E-03 -0.88378603E-04 -0.67433955E-04
 -0.46552683E-04 -0.25898593E-04 -0.56289523E-05  0.14106546E-04  0.33166734E-04
  0.51419817E-04  0.68744137E-04  0.85028823E-04  0.10017435E-03  0.11409298E-03
  0.12670914E-03  0.13795960E-03  0.14779370E-03  0.15617330E-03  0.16307281E-03
  0.16847896E-03  0.17239060E-03  0.17481834E-03  0.17578418E-03  0.17532096E-03
  0.17347187E-03  0.17028976E-03  0.16583650E-03  0.16018223E-03  0.15340462E-03
  0.14558799E-03  0.13682253E-03  0.12720341E-03  0.11682991E-03  0.10580453E-03
  0.94232100E-04  0.82218904E-04  0.69871820E-04  0.57297457E-04  0.44601342E-04
  0.31887124E-04  0.19255815E-04  0.68050767E-05 -0.53714521E-05 -0.17184777E-04
 -0.28551116E-04 -0.39392418E-04 -0.49636812E-04 -0.59219009E-04 -0.68080634E-04
 -0.76170498E-04 -0.83444811E-04 -0.89867322E-04 -0.95409413E-04 -0.10005011E-03
 -0.10377607E-03 -0.10658146E-03 -0.10846780E-03 -0.10944383E-03 -0.10952514E-03
 -0.10873400E-03 -0.10709890E-03 -0.10465424E-03 -0.10143990E-03 -0.97500760E-04
 -0.92886252E-04 -0.87649848E-04 -0.81848541E-04 -0.75542313E-04 -0.68793595E-04
 -0.61666712E-04 -0.54227342E-04 -0.46541965E-04 -0.38677329E-04 -0.30699922E-04
 -0.22675460E-04 -0.14668395E-04 -0.67414463E-05  0.10448476E-05  0.86325441E-05
  0.15966684E-04  0.22995648E-04  0.29671472E-04  0.35950135E-04  0.41791802E-04
  0.47161034E-04  0.52026955E-04  0.56363384E-04  0.60148919E-04  0.63366993E-04
  0.66005885E-04  0.68058690E-04  0.69523264E-04  0.70402117E-04  0.70702291E-04
  0.70435188E-04  0.69616383E-04  0.68265400E-04  0.66405468E-04  0.64063250E-04
  0.61268555E-04  0.58054030E-04  0.54454843E-04  0.50508344E-04  0.46253726E-04
  0.41731678E-04  0.36984029E-04  0.32053401E-04  0.26982853E-04  0.21815539E-04
  0.16594372E-04  0.11361690E-04  0.61589441E-05  0.10263947E-05 -0.39971739E-05
 -0.88747215E-05 -0.13571200E-04 -0.18053781E-04 -0.22292059E-04 -0.26258236E-04
 -0.29927272E-04 -0.33277026E-04 -0.36288353E-04 -0.38945192E-04 -0.41234618E-04
 -0.43146872E-04 -0.44675366E-04 -0.45816663E-04 -0.46570431E-04 -0.46939379E-04
 -0.46929166E-04 -0.46548290E-04 -0.45807961E-04 -0.44721953E-04 -0.43306436E-04
 -0.41579802E-04 -0.39562470E-04 -0.37276684E-04 -0.34746296E-04 -0.31996549E-04
 -0.29053850E-04 -0.25945533E-04 -0.22699636E-04 -0.19344657E-04 -0.15909328E-04
 -0.12422389E-04 -0.89123551E-05 -0.54073086E-05 -0.19346848E-05  0.14789260E-05
  0.48079673E-05  0.80280929E-05  0.11116331E-04  0.14051231E-04  0.16813002E-04
  0.19383629E-04  0.21746972E-04  0.23888858E-04  0.25797145E-04  0.27461775E-04
  0.28874806E-04  0.30030432E-04  0.30924981E-04  0.31556901E-04  0.31926722E-04
  0.32037015E-04  0.31892325E-04  0.31499095E-04  0.30865576E-04  0.30001726E-04
  0.28919096E-04  0.27630709E-04  0.26150926E-04  0.24495304E-04  0.22680459E-04
  0.20723904E-04  0.18643902E-04  0.16459306E-04  0.14189399E-04  0.11853738E-04
  0.94719915E-05  0.70637902E-05  0.46485706E-05  0.22454295E-05 -0.12701821E-06
 -0.24507741E-05 -0.47085842E-05 -0.68840580E-05 -0.89617783E-05 -0.10927402E-04
 -0.12767750E-04 -0.14470885E-04 -0.16026182E-04 -0.17424382E-04 -0.18657641E-04
 -0.19719555E-04 -0.20605189E-04 -0.21311084E-04 -0.21835251E-04 -0.22177161E-04
 -0.22337720E-04 -0.22319233E-04 -0.22125356E-04 -0.21761046E-04 -0.21232493E-04
 -0.20547048E-04 -0.19713144E-04 -0.18740211E-04 -0.17638578E-04 -0.16419381E-04
 -0.15094457E-04 -0.13676238E-04 -0.12177646E-04 -0.10611980E-04 -0.89928065E-05
 -0.73338476E-05 -0.56488732E-05 -0.39515916E-05 -0.22555443E-05 -0.57400411E-06
  0.10801234E-05  0.26943927E-05  0.42569069E-05  0.57563994E-05  0.71823098E-05
  0.85248524E-05  0.97750779E-05  0.10924927E-04  0.11967276E-04  0.12895975E-04
  0.13705878E-04  0.14392862E-04  0.14953842E-04  0.15386773E-04  0.15690650E-04
  0.15865494E-04  0.15912331E-04  0.15833172E-04  0.15630968E-04  0.15309581E-04
  0.14873730E-04  0.14328941E-04  0.13681487E-04  0.12938329E-04  0.12107045E-04
  0.11195763E-04  0.10213086E-04  0.91680164E-05  0.80698800E-05  0.69282456E-05
  0.57528472E-05  0.45535052E-05  0.33400485E-05  0.21222376E-05  0.90968996E-06
 -0.28819188E-06 -0.14622899E-05 -0.26038362E-05 -0.37044751E-05 -0.47563202E-05
 -0.57520079E-05 -0.66847449E-05 -0.75483509E-05 -0.83372956E-05 -0.90467304E-05
 -0.96725135E-05 -0.10211230E-04 -0.10660204E-04 -0.11017510E-04 -0.11281970E-04
 -0.11453151E-04 -0.11531358E-04 -0.11517614E-04 -0.11413642E-04 -0.11221841E-04
 -0.10945250E-04 -0.10587519E-04 -0.10152864E-04 -0.96460326E-05 -0.90722482E-05
 -0.84371675E-05 -0.77468268E-05 -0.70075888E-05 -0.62260869E-05 -0.54091698E-05
 -0.45638434E-05 -0.36972148E-05 -0.28164340E-05 -0.19286388E-05 -0.10408984E-05
 -0.16016031E-06  0.70680187E-06  0.15534381E-05  0.23734692E-05  0.31609305E-05
  0.39102137E-05  0.46161035E-05  0.52738123E-05  0.58790095E-05  0.64278478E-05
  0.69169848E-05  0.73436002E-05  0.77054096E-05  0.80006723E-05  0.82281964E-05
  0.83873384E-05  0.84779991E-05  0.85006153E-05  0.84561471E-05  0.83460622E-05
  0.81723155E-05  0.79373260E-05  0.76439502E-05  0.72954523E-05  0.68954725E-05
  0.64479924E-05  0.59572977E-05  0.54279408E-05  0.48647001E-05  0.42725398E-05
  0.36565676E-05  0.30219931E-05  0.23740854E-05  0.17181310E-05  0.10593928E-05
  0.40306919E-06 -0.24574538E-06 -0.88209796E-06 -0.15012136E-05 -0.20985295E-05
 -0.26697271E-05 -0.32107615E-05 -0.37178888E-05 -0.41876900E-05 -0.46170927E-05
 -0.50033890E-05 -0.53442510E-05 -0.56377426E-05 -0.58823283E-05 -0.60768787E-05
 -0.62206726E-05 -0.63133965E-05 -0.63551401E-05 -0.63463891E-05 -0.62880156E-05
 -0.61812645E-05 -0.60277385E-05 -0.58293794E-05 -0.55884481E-05 -0.53075013E-05
 -0.49893678E-05 -0.46371214E-05 -0.42540536E-05 -0.38436442E-05 -0.34095318E-05
 -0.29554822E-05 -0.24853580E-05 -0.20030865E-05 -0.15126280E-05 -0.10179451E-05
 -0.52297115E-06 -0.31580661E-07  0.45244026E-06  0.92542181E-06  0.13838373E-05
  0.18243284E-05  0.22437284E-05  0.26390842E-05  0.30076758E-05  0.33470340E-05
  0.36549553E-05  0.39295156E-05  0.41690803E-05  0.43723129E-05  0.45381806E-05
  0.46659579E-05  0.47552273E-05  0.48058779E-05  0.48181018E-05  0.47923877E-05
  0.47295127E-05  0.46305318E-05  0.44967655E-05  0.43297857E-05  0.41313992E-05
  0.39036305E-05  0.36487028E-05  0.33690172E-05  0.30671319E-05  0.27457396E-05
  0.24076447E-05  0.20557398E-05  0.16929817E-05  0.13223675E-05  0.94691098E-06
  0.56961852E-06  0.19346603E-06 -0.17862382E-06 -0.54380348E-06 -0.89932161E-06
 -0.12425430E-05 -0.15709673E-05 -0.18822467E-05 -0.21742017E-05 -0.24448355E-05
 -0.26923471E-05 -0.29151422E-05 -0.31118429E-05 -0.32812948E-05 -0.34225727E-05
 -0.35349849E-05 -0.36180747E-05 -0.36716208E-05 -0.36956353E-05 -0.36903606E-05
 -0.36562635E-05 -0.35940292E-05 -0.35045518E-05 -0.33889253E-05 -0.32484312E-05
 -0.30845267E-05 -0.28988303E-05 -0.26931069E-05 -0.24692523E-05 -0.22292760E-05
 -0.19752846E-05 -0.17094634E-05 -0.14340587E-05 -0.11513593E-05 -0.86367809E-06
 -0.57333358E-06 -0.28263203E-06  0.61504384E-08  0.29078513E-06  0.56910739E-06
  0.83903258E-06  0.10985711E-05  0.13458425E-05  0.15790888E-05  0.17966859E-05
  0.19971549E-05  0.21791712E-05  0.23415727E-05  0.24833667E-05  0.26037349E-05
  0.27020376E-05  0.27778161E-05  0.28307938E-05  0.28608754E-05  0.28681458E-05
  0.28528661E-05  0.28154700E-05  0.27565570E-05  0.26768865E-05  0.25773688E-05
  0.24590564E-05  0.23231336E-05  0.21709057E-05  0.20037868E-05  0.18232878E-05
  0.16310028E-05  0.14285958E-05  0.12177870E-05  0.10003382E-05  0.77803867E-06
  0.55269115E-06  0.32609727E-06  0.10004374E-06 -0.12371140E-06 -0.34345203E-06
 -0.55751678E-06 -0.76431115E-06 -0.96231901E-06 -0.11501134E-05 -0.13263662E-05
 -0.14898575E-05 -0.16394832E-05 -0.17742623E-05 -0.18933428E-05 -0.19960066E-05
 -0.20816730E-05 -0.21499020E-05 -0.22003952E-05 -0.22329963E-05 -0.22476908E-05
 -0.22446039E-05 -0.22239977E-05 -0.21862672E-05 -0.21319358E-05 -0.20616490E-05
 -0.19761684E-05 -0.18763637E-05 -0.17632044E-05 -0.16377516E-05 -0.15011479E-05
 -0.13546076E-05 -0.11994065E-05 -0.10368708E-05 -0.86836660E-06 -0.69528820E-06
 -0.51904728E-06 -0.34106153E-06 -0.16274355E-06  0.14510015E-07  0.18932920E-06
  0.36038098E-06  0.52637916E-06  0.68609379E-06  0.83835997E-06  0.98208608E-06
  0.11162613E-05  0.12399624E-05  0.13523598E-05  0.14527229E-05  0.15404242E-05
  0.16149432E-05  0.16758688E-05  0.17229012E-05  0.17558527E-05  0.17746477E-05
  0.17793221E-05  0.17700212E-05  0.17469974E-05  0.17106067E-05  0.16613049E-05
  0.15996424E-05  0.15262589E-05  0.14418773E-05  0.13472967E-05  0.12433859E-05
  0.11310749E-05  0.10113476E-05  0.88523291E-06  0.75379655E-06  0.61813213E-06
  0.47935230E-06  0.33857987E-06  0.19693894E-06  0.55546155E-07 -0.84497925E-07
 -0.22211715E-06 -0.35626784E-06 -0.48594653E-06 -0.61019723E-06 -0.72811829E-06
 -0.83886871E-06 -0.94167393E-06 -0.10358310E-05 -0.11207133E-05 -0.11957741E-05
 -0.12605502E-05 -0.13146644E-05 -0.13578270E-05 -0.13898376E-05 -0.14105849E-05
 -0.14200470E-05 -0.14182900E-05 -0.14054668E-05 -0.13818145E-05 -0.13476516E-05
 -0.13033748E-05 -0.12494543E-05 -0.11864302E-05 -0.11149063E-05 -0.10355455E-05
 -0.94906368E-06 -0.85622316E-06 -0.75782659E-06 -0.65471003E-06 -0.54773606E-06
 -0.43778676E-06 -0.32575660E-06 -0.21254532E-06 -0.99050880E-07  0.13837499E-07
  0.12524617E-06  0.23432364E-06  0.34024694E-06  0.44222769E-06  0.53951778E-06
  0.63141474E-06  0.71726662E-06  0.79647647E-06  0.86850629E-06  0.93288055E-06
  0.98918910E-06  0.10370896E-05  0.10763093E-05  0.11066463E-05  0.11279706E-05
  0.11402238E-05  0.11434188E-05  0.11376391E-05  0.11230370E-05  0.10998319E-05
 atomic pseudo charge-density
  0.90000000E+01  0.89802691E+01  0.89217001E+01  0.88261060E+01  0.86963289E+01
  0.85359984E+01  0.83492444E+01  0.81404023E+01  0.79137433E+01  0.76732571E+01
  0.74224979E+01  0.71644994E+01  0.69017496E+01  0.66362156E+01  0.63694019E+01
  0.61024278E+01  0.58361125E+01  0.55710564E+01  0.53077134E+01  0.50464505E+01
  0.47875935E+01  0.45314592E+01  0.42783758E+01  0.40286937E+01  0.37827888E+01
  0.35410600E+01  0.33039238E+01  0.30718061E+01  0.28451334E+01  0.26243236E+01
  0.24097781E+01  0.22018733E+01  0.20009549E+01  0.18073322E+01  0.16212743E+01
  0.14430069E+01  0.12727112E+01  0.11105228E+01  0.95653236E+00  0.81078626E+00
  0.67328854E+00  0.54400308E+00  0.42285620E+00  0.30973960E+00  0.20451344E+00
  0.10700958E+00  0.17034832E-01 -0.65625845E-01 -0.14120620E+00 -0.20995569E+00
 -0.27213660E+00 -0.32802140E+00 -0.37789020E+00 -0.42202849E+00 -0.46072501E+00
 -0.49426985E+00 -0.52295272E+00 -0.54706142E+00 -0.56688047E+00 -0.58268988E+00
 -0.59476417E+00 -0.60337135E+00 -0.60877225E+00 -0.61121976E+00 -0.61095836E+00
 -0.60822361E+00 -0.60324185E+00 -0.59622985E+00 -0.58739469E+00 -0.57693360E+00
 -0.56503388E+00 -0.55187291E+00 -0.53761820E+00 -0.52242747E+00 -0.50644877E+00
 -0.48982066E+00 -0.47267242E+00 -0.45512425E+00 -0.43728754E+00 -0.41926510E+00
 -0.40115154E+00 -0.38303346E+00 -0.36498984E+00 -0.34709232E+00 -0.32940557E+00
 -0.31198757E+00 -0.29488997E+00 -0.27815841E+00 -0.26183288E+00 -0.24594799E+00
 -0.23053334E+00 -0.21561382E+00 -0.20120991E+00 -0.18733797E+00 -0.17401059E+00
 -0.16123677E+00 -0.14902230E+00 -0.13736993E+00 -0.12627971E+00 -0.11574915E+00
 -0.10577349E+00 -0.96345935E-01 -0.87457832E-01 -0.79098885E-01 -0.71257340E-01
 -0.63920165E-01 -0.57073214E-01 -0.50701389E-01 -0.44788785E-01 -0.39318831E-01
 -0.34274417E-01 -0.29638016E-01 -0.25391798E-01 -0.21517731E-01 -0.17997676E-01
 -0.14813480E-01 -0.11947053E-01 -0.93804433E-02 -0.70959051E-02 -0.50759590E-02
 -0.33034470E-02 -0.17615820E-02 -0.43399117E-03  0.69524534E-03  0.16415607E-02
  0.24198727E-02  0.30445585E-02  0.35294350E-02  0.38877411E-02  0.41321260E-02
  0.42746383E-02  0.43267205E-02  0.42992056E-02  0.42023158E-02  0.40456654E-02
  0.38382644E-02  0.35885258E-02  0.33042739E-02  0.29927549E-02  0.26606492E-02
  0.23140854E-02  0.19586553E-02  0.15994304E-02  0.12409797E-02  0.88738804E-03
  0.54227572E-03  0.20881837E-03 -0.11023221E-03 -0.41252697E-03 -0.69609806E-03
 -0.95933716E-03 -0.12009736E-02 -0.14200523E-02 -0.16159124E-02 -0.17881649E-02
 -0.19366718E-02 -0.20615247E-02 -0.21630241E-02 -0.22416589E-02 -0.22980869E-02
 -0.23331155E-02 -0.23476829E-02 -0.23428403E-02 -0.23197349E-02 -0.22795929E-02
 -0.22237042E-02 -0.21534073E-02 -0.20700750E-02 -0.19751019E-02 -0.18698908E-02
 -0.17558423E-02 -0.16343432E-02 -0.15067573E-02 -0.13744161E-02 -0.12386105E-02
 -0.11005841E-02 -0.96152602E-03 -0.82256583E-03 -0.68476833E-03 -0.54912957E-03
 -0.41657350E-03 -0.28794932E-03 -0.16402953E-03 -0.45508621E-04  0.66997564E-04
  0.17295192E-03  0.27189561E-03  0.36344704E-03  0.44730041E-03  0.52322373E-03
  0.59105655E-03  0.65070720E-03  0.70214979E-03  0.74542084E-03  0.78061573E-03
  0.80788486E-03  0.82742973E-03  0.83949871E-03  0.84438291E-03  0.84241177E-03
  0.83394877E-03  0.81938703E-03  0.79914496E-03  0.77366194E-03  0.74339412E-03
  0.70881025E-03  0.67038768E-03  0.62860846E-03  0.58395566E-03  0.53690982E-03
  0.48794558E-03  0.43752855E-03  0.38611241E-03  0.33413620E-03  0.28202183E-03
  0.23017190E-03  0.17896769E-03  0.12876743E-03  0.79904812E-04  0.32687755E-04
 -0.12602624E-04 -0.55712762E-04 -0.96417197E-04 -0.13451888E-03 -0.16984926E-03
 -0.20226821E-03 -0.23166369E-03 -0.25795129E-03 -0.28107352E-03 -0.30099904E-03
 -0.31772168E-03 -0.33125929E-03 -0.34165257E-03 -0.34896371E-03 -0.35327498E-03
 -0.35468721E-03 -0.35331822E-03 -0.34930123E-03 -0.34278315E-03 -0.33392296E-03
 -0.32288997E-03 -0.30986216E-03 -0.29502447E-03 -0.27856717E-03 -0.26068423E-03
 -0.24157174E-03 -0.22142638E-03 -0.20044399E-03 -0.17881814E-03 -0.15673883E-03
 -0.13439127E-03 -0.11195472E-03 -0.89601434E-04 -0.67495705E-04 -0.45793014E-04
 -0.24639260E-04 -0.41701087E-05  0.15489571E-04  0.34226158E-04  0.51937634E-04
  0.68533843E-04  0.83936645E-04  0.98079992E-04  0.11090989E-03  0.12238431E-03
  0.13247298E-03  0.14115712E-03  0.14842909E-03  0.15429202E-03  0.15875931E-03
  0.16185410E-03  0.16360874E-03  0.16406413E-03  0.16326909E-03  0.16127970E-03
  0.15815854E-03  0.15397402E-03  0.14879961E-03  0.14271312E-03  0.13579592E-03
  0.12813224E-03  0.11980844E-03  0.11091225E-03  0.10153211E-03  0.91756514E-04
  0.81673304E-04  0.71369109E-04  0.60928738E-04  0.50434642E-04  0.39966404E-04
  0.29600280E-04  0.19408771E-04  0.94602471E-05 -0.18138328E-06 -0.94569633E-05
 -0.18312328E-04 -0.26698500E-04 -0.34571840E-04 -0.41894152E-04 -0.48632747E-04
 -0.54760461E-04 -0.60255636E-04 -0.65102059E-04 -0.69288868E-04 -0.72810416E-04
 -0.75666114E-04 -0.77860231E-04 -0.79401679E-04 -0.80303762E-04 -0.80583912E-04
 -0.80263404E-04 -0.79367048E-04 -0.77922877E-04 -0.75961818E-04 -0.73517360E-04
 -0.70625210E-04 -0.67322953E-04 -0.63649709E-04 -0.59645794E-04 -0.55352381E-04
 -0.50811177E-04 -0.46064102E-04 -0.41152976E-04 -0.36119231E-04 -0.31003627E-04
 -0.25845983E-04 -0.20684936E-04 -0.15557703E-04 -0.10499877E-04 -0.55452304E-05
 -0.72554672E-06  0.39295302E-05  0.83926256E-05  0.12638741E-04  0.16645344E-04
  0.20392430E-04  0.23862573E-04  0.27040948E-04  0.29915339E-04  0.32476128E-04
  0.34716263E-04  0.36631212E-04  0.38218904E-04  0.39479644E-04  0.40416031E-04
  0.41032847E-04  0.41336946E-04  0.41337131E-04  0.41044014E-04  0.40469881E-04
  0.39628542E-04  0.38535180E-04  0.37206193E-04  0.35659037E-04  0.33912066E-04
  0.31984375E-04  0.29895635E-04  0.27665942E-04  0.25315659E-04  0.22865270E-04
  0.20335232E-04  0.17745838E-04  0.15117081E-04  0.12468531E-04  0.98192156E-05
  0.71875095E-05  0.45910325E-05  0.20465571E-05 -0.43007513E-06 -0.28240280E-05
 -0.51215356E-05 -0.73099574E-05 -0.93778239E-05 -0.11314873E-04 -0.13112076E-04
 -0.14761657E-04 -0.16257100E-04 -0.17593148E-04 -0.18765797E-04 -0.19772278E-04
 -0.20611033E-04 -0.21281686E-04 -0.21785002E-04 -0.22122845E-04 -0.22298130E-04
 -0.22314765E-04 -0.22177595E-04 -0.21892337E-04 -0.21465514E-04 -0.20904384E-04
 -0.20216873E-04 -0.19411493E-04 -0.18497275E-04 -0.17483690E-04 -0.16380572E-04
 -0.15198044E-04 -0.13946441E-04 -0.12636240E-04 -0.11277983E-04 -0.98822089E-05
 -0.84593855E-05 -0.70198440E-05 -0.55737162E-05 -0.41308758E-05 -0.27008825E-05
 -0.12929301E-05  0.84201164E-07  0.14221889E-05  0.27132078E-05  0.39499655E-05
  0.51257329E-05  0.62343710E-05  0.72703530E-05  0.82287819E-05  0.91054032E-05
  0.98966143E-05  0.10599469E-04  0.11211677E-04  0.11731602E-04  0.12158251E-04
  0.12491267E-04  0.12730912E-04  0.12878046E-04  0.12934111E-04  0.12901103E-04
  0.12781544E-04  0.12578456E-04  0.12295325E-04  0.11936071E-04  0.11505008E-04
  0.11006810E-04  0.10446469E-04  0.98292625E-05  0.91607038E-05  0.84465082E-05
  0.76925494E-05  0.69048185E-05  0.60893839E-05  0.52523505E-05  0.43998203E-05
  0.35378536E-05  0.26724317E-05  0.18094204E-05  0.95453541E-06  0.11330930E-06
 -0.70893983E-06 -0.15071376E-05 -0.22764802E-05 -0.30124598E-05 -0.37108867E-05
 -0.43679095E-05 -0.49800330E-05 -0.55441328E-05 -0.60574685E-05 -0.65176926E-05
 -0.69228588E-05 -0.72714253E-05 -0.75622580E-05 -0.77946288E-05 -0.79682130E-05
 -0.80830834E-05 -0.81397023E-05 -0.81389109E-05 -0.80819167E-05 -0.79702789E-05
 -0.78058917E-05 -0.75909652E-05 -0.73280058E-05 -0.70197936E-05 -0.66693599E-05
 -0.62799619E-05 -0.58550577E-05 -0.53982795E-05 -0.49134068E-05 -0.44043381E-05
 -0.38750633E-05 -0.33296357E-05 -0.27721429E-05 -0.22066800E-05 -0.16373209E-05
 -0.10680919E-05 -0.50294539E-06  0.54266070E-07  0.59981376E-06  0.11301162E-05
  0.16417610E-05  0.21315253E-05  0.25963948E-05  0.30335807E-05  0.34405356E-05
  0.38149664E-05  0.41548467E-05  0.44584262E-05  0.47242383E-05  0.49511057E-05
  0.51381444E-05  0.52847648E-05  0.53906713E-05  0.54558599E-05  0.54806136E-05
  0.54654958E-05  0.54113424E-05  0.53192513E-05  0.51905711E-05  0.50268872E-05
  0.48300075E-05  0.46019460E-05  0.43449054E-05  0.40612585E-05  0.37535290E-05
  0.34243711E-05  0.30765487E-05  0.27129136E-05  0.23363847E-05  0.19499249E-05
  0.15565202E-05  0.11591572E-05  0.76080198E-06  0.36437890E-06 -0.27249937E-07
 -0.41130440E-06 -0.78510522E-06 -0.11460920E-05 -0.14918398E-05 -0.18200752E-05
 -0.21286901E-05 -0.24157551E-05 -0.26795303E-05 -0.29184759E-05 -0.31312600E-05
 -0.33167656E-05 -0.34740951E-05 -0.36025743E-05 -0.37017532E-05 -0.37714067E-05
 -0.38115324E-05 -0.38223475E-05 -0.38042837E-05 -0.37579808E-05 -0.36842791E-05
 -0.35842096E-05 -0.34589837E-05 -0.33099815E-05 -0.31387387E-05 -0.29469331E-05
 -0.27363694E-05 -0.25089640E-05 -0.22667289E-05 -0.20117550E-05 -0.17461954E-05
 -0.14722477E-05 -0.11921372E-05 -0.90809952E-06 -0.62236340E-06 -0.33713399E-06
 -0.54576471E-07  0.22319980E-06  0.49415647E-06  0.75634060E-06  0.10078983E-05
  0.12470873E-05  0.14722886E-05  0.16820168E-05  0.18749298E-05  0.20498363E-05
  0.22057030E-05  0.23416602E-05  0.24570054E-05  0.25512068E-05  0.26239043E-05
  0.26749095E-05  0.27042050E-05  0.27119414E-05  0.26984338E-05  0.26641565E-05
  0.26097370E-05  0.25359491E-05  0.24437038E-05  0.23340407E-05  0.22081178E-05
  0.20672005E-05  0.19126500E-05  0.17459114E-05  0.15685011E-05  0.13819934E-05
  0.11880080E-05  0.98819601E-06  0.78422679E-06  0.57777460E-06  0.37050534E-06
  0.16406366E-06 -0.39939659E-07 -0.23993979E-06 -0.43442942E-06 -0.62196970E-06
 -0.80120049E-06 -0.97084980E-06 -0.11297424E-05 -0.12768075E-05 -0.14110857E-05
 -0.15317345E-05 -0.16380334E-05 -0.17293873E-05 -0.18053296E-05 -0.18655232E-05
 -0.19097620E-05 -0.19379694E-05 -0.19501977E-05 -0.19466249E-05 -0.19275519E-05
 -0.18933976E-05 -0.18446940E-05 -0.17820798E-05 -0.17062941E-05 -0.16181683E-05
 -0.15186185E-05 -0.14086364E-05 -0.12892807E-05 -0.11616669E-05 -0.10269580E-05
 -0.88635426E-06 -0.74108299E-06 -0.59238834E-06 -0.44152109E-06 -0.28972853E-06
 -0.13824457E-06  0.11719968E-07  0.15898661E-06  0.30241814E-06  0.44092708E-06
  0.57348350E-06  0.69912242E-06  0.81695042E-06  0.92615163E-06  0.10259930E-05
  0.11158290E-05  0.11951049E-05  0.12633603E-05  0.13202309E-05  0.13654499E-05
  0.13988486E-05  0.14203563E-05  0.14299988E-05  0.14278972E-05  0.14142649E-05
  0.13894044E-05  0.13537038E-05  0.13076317E-05  0.12517326E-05  0.11866209E-05
  0.11129752E-05  0.10315314E-05  0.94307585E-06  0.84843865E-06  0.74848572E-06
  0.64411152E-06  0.53623130E-06  0.42577343E-06  0.31367168E-06  0.20085765E-06
  0.88253291E-07 -0.23236333E-07 -0.13273006E-06 -0.23937731E-06 -0.34236441E-06
 -0.44092055E-06 -0.53432325E-06 -0.62190334E-06 -0.70304951E-06 -0.77721222E-06
 -0.84390709E-06 -0.90271773E-06 -0.95329793E-06 -0.99537329E-06 -0.10287422E-05
 -0.10532764E-05 -0.10689204E-05 -0.10756912E-05 -0.10736767E-05 -0.10630338E-05
 -0.10439858E-05 -0.10168202E-05 -0.98188442E-06 -0.93958270E-06 -0.89037157E-06
 -0.83475546E-06 -0.77328179E-06 -0.70653592E-06 -0.63513580E-06 -0.55972652E-06
 -0.48097468E-06 -0.39956269E-06 -0.31618309E-06 -0.23153282E-06 -0.14630763E-06
 -0.61196493E-07  0.23123709E-07  0.10599342E-06  0.18677534E-06  0.26485913E-06
  0.33966583E-06  0.41065191E-06  0.47731298E-06  0.53918717E-06  0.59585805E-06
  0.64695716E-06  0.69216617E-06  0.73121849E-06  0.76390053E-06  0.79005254E-06
  0.80956886E-06  0.82239796E-06  0.82854184E-06  0.82805514E-06  0.82104383E-06
  0.80766347E-06  0.78811719E-06  0.76265324E-06  0.73156230E-06  0.69517445E-06
  0.65385594E-06  0.60800569E-06  0.55805157E-06  0.50444662E-06  0.44766504E-06
  0.38819811E-06  0.32655010E-06  0.26323410E-06  0.19876783E-06  0.13366959E-06
  0.68454191E-07  0.36290134E-08 -0.60309804E-07 -0.12288102E-06 -0.18362174E-06
 -0.24209073E-06 -0.29787141E-06 -0.35057467E-06 -0.39984140E-06 -0.44534471E-06
 -0.48679195E-06 -0.52392631E-06 -0.55652820E-06 -0.58441632E-06 -0.60744833E-06
 -0.62552129E-06 -0.63857180E-06 -0.64657574E-06 -0.64954782E-06 -0.64754078E-06
 -0.64064430E-06 -0.62898373E-06 -0.61271847E-06 -0.59204020E-06 -0.56717085E-06
 -0.53836039E-06 -0.50588449E-06 -0.47004193E-06 -0.43115202E-06 -0.38955177E-06
 -0.34559310E-06 -0.29963992E-06 -0.25206519E-06 -0.20324798E-06 -0.15357053E-06
 -0.10341537E-06 -0.53162401E-07 -0.31861855E-08  0.46146780E-07  0.94480627E-07
  0.14147257E-06  0.18679521E-06  0.23013867E-06  0.27121261E-06  0.30974797E-06
  0.34549863E-06  0.37824275E-06  0.40778406E-06  0.43395277E-06  0.45660638E-06
  0.47563025E-06  0.49093796E-06  0.50247142E-06  0.51020080E-06  0.51412430E-06
  0.51426763E-06  0.51068338E-06  0.50345018E-06  0.49267164E-06  0.47847526E-06
  0.46101103E-06  0.44045001E-06  0.41698276E-06  0.39081763E-06  0.36217898E-06
  0.33130533E-06  0.29844742E-06  0.26386623E-06  0.22783098E-06  0.19061710E-06
  0.15250415E-06  0.11377385E-06  0.74708036E-07  0.35586686E-07 -0.33139823E-08
 -0.41723383E-07 -0.79378349E-07 -0.11602484E-06 -0.15141953E-06 -0.18533135E-06
 -0.21754285E-06 -0.24785151E-06 -0.27607084E-06 -0.30203146E-06 -0.32558196E-06
 -0.34658964E-06 -0.36494116E-06 -0.38054295E-06 -0.39332160E-06 -0.40322402E-06
 -0.41021747E-06 -0.41428951E-06 -0.41544775E-06 -0.41371952E-06 -0.40915138E-06
 -0.40180851E-06 -0.39177405E-06 -0.37914823E-06 -0.36404751E-06 -0.34660352E-06
 -0.32696202E-06 -0.30528168E-06 -0.28173291E-06 -0.25649656E-06 -0.22976252E-06
 -0.20172845E-06 -0.17259828E-06 -0.14258084E-06 -0.11188841E-06 -0.80735302E-07
 -0.49336386E-07 -0.17905724E-07  0.13344841E-07  0.44207034E-07  0.74477464E-07
  0.10395888E-06  0.13246140E-06  0.15980362E-06  0.18581374E-06  0.21033052E-06
  0.23320425E-06  0.25429756E-06  0.27348619E-06  0.29065962E-06  0.30572171E-06
  0.31859108E-06  0.32920155E-06  0.33750241E-06  0.34345857E-06  0.34705064E-06
  0.34827493E-06  0.34714329E-06  0.34368295E-06  0.33793614E-06  0.32995976E-06
  0.31982484E-06  0.30761595E-06  0.29343062E-06  0.27737851E-06  0.25958070E-06
  0.24016876E-06  0.21928387E-06  0.19707579E-06  0.17370188E-06  0.14932601E-06
  0.12411747E-06  0.98249818E-07  0.71899778E-07  0.45246044E-07  0.18468129E-07
 -0.82547985E-08 -0.34745074E-07 -0.60827671E-07 -0.86331317E-07 -0.11108958E-06
 -0.13494192E-06 -0.15773470E-06 -0.17932214E-06 -0.19956724E-06 -0.21834261E-06
 -0.23553127E-06 -0.25102733E-06 -0.26473669E-06 -0.27657753E-06 -0.28648084E-06
 -0.29439084E-06 -0.30026521E-06 -0.30407539E-06 -0.30580669E-06 -0.30545831E-06
 -0.30304334E-06 -0.29858857E-06 -0.29213430E-06 -0.28373403E-06 -0.27345403E-06
 -0.26137289E-06 -0.24758092E-06 -0.23217955E-06 -0.21528061E-06 -0.19700553E-06
 -0.17748453E-06 -0.15685572E-06 -0.13526412E-06 -0.11286072E-06 -0.89801414E-07
 -0.66245951E-07 -0.42356857E-07 -0.18298327E-07  0.57648878E-08  0.29668591E-07
  0.53250255E-07  0.76350118E-07  0.98812260E-07  0.12048565E-06  0.14122516E-06
  0.16089256E-06  0.17935742E-06  0.19649801E-06  0.21220207E-06  0.22636764E-06
  0.23890365E-06  0.24973055E-06  0.25878087E-06  0.26599958E-06  0.27134451E-06
  0.27478660E-06  0.27631004E-06  0.27591236E-06  0.27360442E-06  0.26941030E-06
  0.26336712E-06  0.25552470E-06  0.24594524E-06  0.23470281E-06  0.22188284E-06
  0.20758148E-06  0.19190488E-06  0.17496844E-06  0.15689599E-06  0.13781887E-06
  0.11787502E-06  0.97207967E-07  0.75965803E-07  0.54300137E-07  0.32365002E-07
  0.10315766E-07 -0.11691978E-07 -0.33503506E-07 -0.54966066E-07 -0.75929955E-07
 -0.96249584E-07 -0.11578450E-06 -0.13440037E-06 -0.15196992E-06 -0.16837384E-06
 -0.18350157E-06 -0.19725211E-06 -0.20953468E-06 -0.22026934E-06 -0.22938755E-06
 -0.23683260E-06 -0.24256000E-06 -0.24653772E-06 -0.24874637E-06 -0.24917935E-06
 -0.24784279E-06 -0.24475549E-06 -0.23994873E-06 -0.23346598E-06 -0.22536258E-06
 -0.21570523E-06 -0.20457148E-06 -0.19204918E-06 -0.17823570E-06 -0.16323728E-06
 -0.14716816E-06 -0.13014975E-06 -0.11230968E-06 -0.93780876E-07 -0.74700529E-07
 -0.55209105E-07 -0.35449294E-07 -0.15564959E-07  0.42999198E-08  0.24002304E-07
  0.43401139E-07  0.62358382E-07  0.80739997E-07  0.98416916E-07  0.11526596E-06
   15.1178079086314      T
 Non local Part
           0           2   1.35164824889581
  -3.91721191398279        1.08639913915525        1.08639913915525
 -0.300612247690657
 Reciprocal Space Part
  0.22124505E+02  0.22043152E+02  0.21799567E+02  0.21395174E+02  0.20832343E+02
  0.20114395E+02  0.19245600E+02  0.18231172E+02  0.17077271E+02  0.15790990E+02
  0.14380347E+02  0.12854269E+02  0.11222568E+02  0.94959074E+01  0.76857699E+01
  0.58044034E+01  0.38647646E+01  0.18804490E+01 -0.13439013E+00 -0.21651337E+01
 -0.41968007E+01 -0.62141626E+01 -0.82018677E+01 -0.10144576E+02 -0.12027099E+02
 -0.13834552E+02 -0.15552503E+02 -0.17167128E+02 -0.18665371E+02 -0.20035093E+02
 -0.21265224E+02 -0.22345905E+02 -0.23268617E+02 -0.24026306E+02 -0.24613485E+02
 -0.25026323E+02 -0.25262715E+02 -0.25322333E+02 -0.25206650E+02 -0.24918941E+02
 -0.24464270E+02 -0.23849436E+02 -0.23082909E+02 -0.22174733E+02 -0.21136409E+02
 -0.19980760E+02 -0.18721768E+02 -0.17374401E+02 -0.15954418E+02 -0.14478170E+02
 -0.12962381E+02 -0.11423934E+02 -0.98796445E+01 -0.83460409E+01 -0.68391485E+01
 -0.53742796E+01 -0.39658364E+01 -0.26271276E+01 -0.13702032E+01 -0.20570889E+00
  0.85723659E+00  0.18111400E+01  0.26502062E+01  0.33703829E+01  0.39693795E+01
  0.44466562E+01  0.48033874E+01  0.50423982E+01  0.51680756E+01  0.51862566E+01
  0.51040955E+01  0.49299126E+01  0.46730266E+01  0.43435757E+01  0.39523283E+01
  0.35104885E+01  0.30294992E+01  0.25208464E+01  0.19958677E+01  0.14655697E+01
  0.94045487E+00  0.43036375E+00 -0.55667638E-01 -0.50953131E+00 -0.92415074E+00
 -0.12935625E+01 -0.16129755E+01 -0.18788066E+01 -0.20886937E+01 -0.22414857E+01
 -0.23372101E+01 -0.23770208E+01 -0.23631261E+01 -0.22986991E+01 -0.21877739E+01
 -0.20351289E+01 -0.18461596E+01 -0.16267452E+01 -0.13831095E+01 -0.11216818E+01
 Real Space Part
 -0.12482108E+03 -0.12471319E+03 -0.12438976E+03 -0.12385149E+03 -0.12309955E+03
 -0.12213558E+03 -0.12096168E+03 -0.11958045E+03 -0.11799493E+03 -0.11620865E+03
 -0.11422564E+03 -0.11205036E+03 -0.10968780E+03 -0.10714341E+03 -0.10442311E+03
 -0.10153332E+03 -0.98480944E+02 -0.95273361E+02 -0.91918426E+02 -0.88424472E+02
 -0.84800299E+02 -0.81055170E+02 -0.77198801E+02 -0.73241352E+02 -0.69193414E+02
 -0.65065996E+02 -0.60870506E+02 -0.56618734E+02 -0.52322832E+02 -0.47995286E+02
 -0.43648895E+02 -0.39296741E+02 -0.34952155E+02 -0.30628686E+02 -0.26340065E+02
 -0.22100165E+02 -0.17922962E+02 -0.13822487E+02 -0.98127871E+01 -0.59078725E+01
 -0.21216694E+01  0.15320316E+01  0.50396286E+01  0.83877624E+01  0.11563371E+02
  0.14553748E+02  0.17346597E+02  0.19930088E+02  0.22292916E+02  0.24424361E+02
  0.26314335E+02  0.27953447E+02  0.29333051E+02  0.30445302E+02  0.31283203E+02
  0.31840658E+02  0.32112512E+02  0.32094600E+02  0.31783783E+02  0.31177987E+02
  0.30276233E+02  0.29078670E+02  0.27586593E+02  0.25802470E+02  0.23729953E+02
  0.21373890E+02  0.18740330E+02  0.15836523E+02  0.12670916E+02  0.92531410E+01
  0.55939901E+01  0.17053208E+01 -0.24002025E+01 -0.67034392E+01 -0.11096404E+02
 -0.14876031E+02 -0.11723113E+02 -0.93143804E+01 -0.72389875E+01 -0.54657154E+01
 -0.39780273E+01 -0.27564291E+01 -0.17819373E+01 -0.10366897E+01 -0.50390366E+00
 -0.16794028E+00 -0.15346876E-01  0.54401656E-03  0.12883333E-03 -0.23045848E-04
 -0.11586580E-05  0.69250613E-06 -0.61601701E-07 -0.10719323E-07  0.34162998E-08
 -0.29889122E-09 -0.49727722E-10  0.19365425E-10 -0.28632847E-11  0.00000000E+00
 Reciprocal Space Part
  0.63346328E+02  0.63061869E+02  0.62210153E+02  0.60796155E+02  0.58828176E+02
  0.56317847E+02  0.53280131E+02  0.49733334E+02  0.45699093E+02  0.41202371E+02
  0.36271423E+02  0.30937756E+02  0.25236059E+02  0.19204106E+02  0.12882630E+02
  0.63151631E+01 -0.45216557E+00 -0.73708706E+01 -0.14390393E+02 -0.21458429E+02
 -0.28521295E+02 -0.35524344E+02 -0.42412416E+02 -0.49130320E+02 -0.55623359E+02
 -0.61837866E+02 -0.67721770E+02 -0.73225169E+02 -0.78300905E+02 -0.82905134E+02
 -0.86997879E+02 -0.90543561E+02 -0.93511493E+02 -0.95876329E+02 -0.97618458E+02
 -0.98724346E+02 -0.99186791E+02 -0.99005116E+02 -0.98185273E+02 -0.96739859E+02
 -0.94688048E+02 -0.92055422E+02 -0.88873721E+02 -0.85180496E+02 -0.81018676E+02
 -0.76436061E+02 -0.71484729E+02 -0.66220387E+02 -0.60701655E+02 -0.54989311E+02
 -0.49145495E+02 -0.43232894E+02 -0.37313912E+02 -0.31449846E+02 -0.25700081E+02
 -0.20121307E+02 -0.14766784E+02 -0.96856593E+01 -0.49223518E+01 -0.51600752E+00
  0.34999563E+01  0.70982170E+01  0.10257816E+02  0.12964324E+02  0.15209909E+02
  0.16993291E+02  0.18319605E+02  0.19200155E+02  0.19652083E+02  0.19697946E+02
  0.19365211E+02  0.18685689E+02  0.17694903E+02  0.16431413E+02  0.14936108E+02
  0.13251466E+02  0.11420824E+02  0.94876314E+01  0.74947411E+01  0.54837150E+01
  0.34941795E+01  0.15632304E+01 -0.27510028E+00 -0.19903072E+01 -0.35557983E+01
 -0.49492000E+01 -0.61525758E+01 -0.71525597E+01 -0.79404001E+01 -0.85119195E+01
 -0.88673909E+01 -0.90113357E+01 -0.89522500E+01 -0.87022660E+01 -0.82767563E+01
 -0.76938917E+01 -0.69741612E+01 -0.61398649E+01 -0.52145910E+01 -0.42226873E+01
 Real Space Part
 -0.49957824E+03 -0.49915654E+03 -0.49789232E+03 -0.49578834E+03 -0.49284914E+03
 -0.48908114E+03 -0.48449254E+03 -0.47909342E+03 -0.47289570E+03 -0.46591312E+03
 -0.45816132E+03 -0.44965778E+03 -0.44042185E+03 -0.43047476E+03 -0.41983961E+03
 -0.40854138E+03 -0.39660690E+03 -0.38406489E+03 -0.37094589E+03 -0.35728231E+03
 -0.34310834E+03 -0.32845997E+03 -0.31337495E+03 -0.29789273E+03 -0.28205442E+03
 -0.26590274E+03 -0.24948195E+03 -0.23283778E+03 -0.21601735E+03 -0.19906906E+03
 -0.18204251E+03 -0.16498838E+03 -0.14795831E+03 -0.13100477E+03 -0.11418091E+03
 -0.97540445E+02 -0.81137443E+02 -0.65026207E+02 -0.49261072E+02 -0.33896230E+02
 -0.18985540E+02 -0.45823282E+01  0.92608130E+01  0.22492233E+02  0.35061438E+02
  0.46919300E+02  0.58018282E+02  0.68312650E+02  0.77758696E+02  0.86314953E+02
  0.93942411E+02  0.10060473E+03  0.10626844E+03  0.11090316E+03  0.11448175E+03
  0.11698057E+03  0.11837957E+03  0.11866250E+03  0.11781709E+03  0.11583512E+03
  0.11271259E+03  0.10844983E+03  0.10305158E+03  0.96527063E+02  0.88890066E+02
  0.80158951E+02  0.70356693E+02  0.59510874E+02  0.47653664E+02  0.34821780E+02
  0.21056390E+02  0.64027492E+01 -0.90907772E+01 -0.25351264E+02 -0.41969566E+02
 -0.56284557E+02 -0.44372468E+02 -0.35268691E+02 -0.27420599E+02 -0.20711392E+02
 -0.15079685E+02 -0.10452795E+02 -0.67598625E+01 -0.39341656E+01 -0.19129702E+01
 -0.63777986E+00 -0.58303667E-01  0.20670258E-02  0.48951049E-03 -0.87564177E-04
 -0.44023954E-05  0.26312214E-05 -0.23405961E-06 -0.40728754E-07  0.12980451E-07
 -0.11356560E-08 -0.18894413E-09  0.73581385E-10 -0.10879302E-10  0.00000000E+00
 Non local Part
           1           2   1.35164824889581
  -6.97006922200164        10.2509965305820        10.2509965305820
  -15.1890071375404
 Reciprocal Space Part
  0.00000000E+00  0.17060463E+01  0.33756100E+01  0.49730553E+01  0.64644195E+01
  0.78181964E+01  0.90060596E+01  0.10003507E+02  0.10790407E+02  0.11351442E+02
  0.11676432E+02  0.11760525E+02  0.11604269E+02  0.11213545E+02  0.10599373E+02
  0.97776041E+01  0.87684841E+01  0.75961322E+01  0.62879226E+01  0.48737997E+01
  0.33855406E+01  0.18559841E+01  0.31824713E+00 -0.11950529E+01 -0.26525489E+01
 -0.40248311E+01 -0.52850922E+01 -0.64096959E+01 -0.73786562E+01 -0.81760165E+01
 -0.87901219E+01 -0.92137790E+01 -0.94443029E+01 -0.94834519E+01 -0.93372542E+01
 -0.90157344E+01 -0.85325493E+01 -0.79045432E+01 -0.71512387E+01 -0.62942756E+01
 -0.53568152E+01 -0.43629264E+01 -0.33369687E+01 -0.23029899E+01 -0.12841526E+01
 -0.30220380E+00  0.62299998E+00  0.14739012E+01  0.22355757E+01  0.28959856E+01
  0.34461489E+01  0.38802217E+01  0.41954968E+01  0.43923197E+01  0.44739295E+01
  0.44462300E+01  0.43175010E+01  0.40980608E+01  0.37998891E+01  0.34362244E+01
  0.30211463E+01  0.25691565E+01  0.20947684E+01  0.16121175E+01  0.11346022E+01
  0.67456382E+00  0.24301194E+00 -0.15059751E+00 -0.49852922E+00 -0.79487781E+00
 -0.10356188E+01 -0.12186041E+01 -0.13435023E+01 -0.14116917E+01 -0.14261085E+01
 -0.13910587E+01 -0.13120009E+01 -0.11953073E+01 -0.10480120E+01 -0.87755391E+00
 -0.69152351E+00 -0.49741966E+00 -0.30242409E+00 -0.11319925E+00  0.64285407E-01
  0.22489512E+00  0.36443659E+00  0.47972866E+00  0.56863645E+00  0.63007014E+00
  0.66395020E+00  0.67114216E+00  0.65336471E+00  0.61307553E+00  0.55333980E+00
  0.47768672E+00  0.38995922E+00  0.29416246E+00  0.19431582E+00  0.94313507E-01
 Real Space Part
  0.00000000E+00  0.18122520E+00  0.35964685E+00  0.53248562E+00  0.69701044E+00
  0.85056219E+00  0.99057688E+00  0.11146081E+01  0.12203488E+01  0.13056518E+01
  0.13685491E+01  0.14072704E+01  0.14202597E+01  0.14061904E+01  0.13639787E+01
  0.12927954E+01  0.11920760E+01  0.10615279E+01  0.90113683E+00  0.71117012E+00
  0.49217857E+00  0.24499579E+00 -0.29264593E-01 -0.32921385E+00 -0.65319520E+00
 -0.99929309E+00 -0.13653445E+01 -0.17489523E+01 -0.21475005E+01 -0.25581716E+01
 -0.29779653E+01 -0.34037195E+01 -0.38321322E+01 -0.42597850E+01 -0.46831685E+01
 -0.50987076E+01 -0.55027891E+01 -0.58917885E+01 -0.62620996E+01 -0.66101618E+01
 -0.69324901E+01 -0.72257036E+01 -0.74865543E+01 -0.77119560E+01 -0.78990113E+01
 -0.80450397E+01 -0.81476034E+01 -0.82045320E+01 -0.82139468E+01 -0.81742828E+01
 -0.80843092E+01 -0.79431481E+01 -0.77502912E+01 -0.75056148E+01 -0.72093912E+01
 -0.68622996E+01 -0.64654329E+01 -0.60203025E+01 -0.55288408E+01 -0.49934001E+01
 -0.44167498E+01 -0.38020697E+01 -0.31529411E+01 -0.24733350E+01 -0.17675972E+01
 -0.10404312E+01 -0.29687784E+00  0.45770774E+00  0.12176811E+01  0.19771365E+01
  0.27299369E+01  0.34697463E+01  0.41900643E+01  0.48842619E+01  0.55456201E+01
  0.61673679E+01  0.67427245E+01  0.72649402E+01  0.77273384E+01  0.81233598E+01
  0.84466051E+01  0.86908786E+01  0.88502317E+01  0.89190071E+01  0.88918933E+01
  0.87638687E+01  0.85297334E+01  0.82019672E+01  0.78302036E+01  0.74115829E+01
  0.69359811E+01  0.63944115E+01  0.57791982E+01  0.50838093E+01  0.43030241E+01
  0.34319729E+01  0.24670215E+01  0.14295269E+01  0.17887191E+00  0.00000000E+00
 Reciprocal Space Part
  0.00000000E+00  0.10106623E+01  0.19965198E+01  0.29333697E+01  0.37981973E+01
  0.45697330E+01  0.52289635E+01  0.57595864E+01  0.61483960E+01  0.63855902E+01
  0.64649927E+01  0.63841826E+01  0.61445313E+01  0.57511452E+01  0.52127153E+01
  0.45412806E+01  0.37519097E+01  0.28623110E+01  0.18923819E+01  0.86370760E+00
 -0.20097433E+00 -0.12783324E+01 -0.23450064E+01 -0.33781653E+01 -0.43560443E+01
 -0.52584464E+01 -0.60671980E+01 -0.67665452E+01 -0.73434846E+01 -0.77880190E+01
 -0.80933335E+01 -0.82558896E+01 -0.82754360E+01 -0.81549374E+01 -0.79004251E+01
 -0.75207754E+01 -0.70274221E+01 -0.64340133E+01 -0.57560216E+01 -0.50103199E+01
 -0.42147337E+01 -0.33875835E+01 -0.25472274E+01 -0.17116183E+01 -0.89788451E+00
 -0.12194571E+00  0.60182803E+00  0.12609055E+01  0.18448269E+01  0.23453746E+01
  0.27566801E+01  0.30752668E+01  0.33000294E+01  0.34321524E+01  0.34749728E+01
  0.34337927E+01  0.33156480E+01  0.31290423E+01  0.28836538E+01  0.25900241E+01
  0.22592391E+01  0.19026101E+01  0.15313643E+01  0.11563530E+01  0.78778375E+00
  0.43498505E+00  0.10620596E+00 -0.19154322E+00 -0.45260775E+00 -0.67276099E+00
 -0.84923269E+00 -0.98069499E+00 -0.10672075E+01 -0.11101263E+01 -0.11119801E+01
 -0.10763200E+01 -0.10075478E+01 -0.91072930E+00 -0.79139873E+00 -0.65536115E+00
 -0.50849807E+00 -0.35658258E+00 -0.20510877E+00 -0.59139973E-01  0.76820486E-01
  0.19893344E+00  0.30410093E+00  0.39001524E+00  0.45518011E+00  0.49890468E+00
  0.52127214E+00  0.52308538E+00  0.50579257E+00  0.47139632E+00  0.42235013E+00
  0.36144633E+00  0.29169945E+00  0.21622933E+00  0.13814759E+00  0.60451209E-01
 Real Space Part
  0.00000000E+00  0.51176151E-01  0.10045985E+00  0.14597556E+00  0.18588138E+00
  0.21838564E+00  0.24176308E+00  0.25437054E+00  0.25466211E+00  0.24120362E+00
  0.21268626E+00  0.16793937E+00  0.10594223E+00  0.25834782E-01 -0.73072821E-01
 -0.19129186E+00 -0.32914804E+00 -0.48677575E+00 -0.66411384E+00 -0.86090277E+00
 -0.10766832E+01 -0.13107964E+01 -0.15623854E+01 -0.18303987E+01 -0.21135948E+01
 -0.24105484E+01 -0.27196582E+01 -0.30391558E+01 -0.33671166E+01 -0.37014716E+01
 -0.40400204E+01 -0.43804459E+01 -0.47203298E+01 -0.50571689E+01 -0.53883933E+01
 -0.57113842E+01 -0.60234934E+01 -0.63220631E+01 -0.66044460E+01 -0.68680262E+01
 -0.71102401E+01 -0.73285974E+01 -0.75207021E+01 -0.76842736E+01 -0.78171670E+01
 -0.79173933E+01 -0.79831391E+01 -0.80127854E+01 -0.80049256E+01 -0.79583823E+01
 -0.78722236E+01 -0.77457773E+01 -0.75786445E+01 -0.73707113E+01 -0.71221589E+01
 -0.68334725E+01 -0.65054479E+01 -0.61391961E+01 -0.57361470E+01 -0.52980497E+01
 -0.48269722E+01 -0.43252979E+01 -0.37957203E+01 -0.32412364E+01 -0.26651364E+01
 -0.20709931E+01 -0.14626478E+01 -0.84419470E+00 -0.21996362E+00  0.40549984E+00
  0.10274555E+01  0.16409916E+01  0.22410501E+01  0.28224526E+01  0.33799286E+01
  0.39081438E+01  0.44017314E+01  0.48553230E+01  0.52635799E+01  0.56212276E+01
  0.59230874E+01  0.61641112E+01  0.63394145E+01  0.64443115E+01  0.64743575E+01
  0.64253093E+01  0.62927792E+01  0.60855613E+01  0.58403935E+01  0.55550716E+01
  0.52219389E+01  0.48341461E+01  0.43857867E+01  0.38717790E+01  0.32880002E+01
  0.26305509E+01  0.18964455E+01  0.11020100E+01  0.13814504E+00  0.00000000E+00
 Non local Part
           2           1   1.35164824889581
  -1.62535072187468
 Reciprocal Space Part
  0.00000000E+00  0.25352062E-01  0.10074592E+00  0.22421146E+00  0.39252102E+00
  0.60127159E+00  0.84499685E+00  0.11173061E+01  0.14110463E+01  0.17184832E+01
  0.20314967E+01  0.23417847E+01  0.26410717E+01  0.29213151E+01  0.31749042E+01
  0.33948483E+01  0.35749469E+01  0.37099388E+01  0.37956277E+01  0.38289783E+01
  0.38081835E+01  0.37326999E+01  0.36032513E+01  0.34218003E+01  0.31914896E+01
  0.29165541E+01  0.26022075E+01  0.22545055E+01  0.18801907E+01  0.14865220E+01
  0.10810950E+01  0.67165616E+00  0.26591701E+00 -0.12862702E+00 -0.50486923E+00
 -0.85625080E+00 -0.11769029E+01 -0.14617687E+01 -0.17067016E+01 -0.19085394E+01
 -0.20651516E+01 -0.21754593E+01 -0.22394296E+01 -0.22580424E+01 -0.22332347E+01
 -0.21678209E+01 -0.20653950E+01 -0.19302160E+01 -0.17670797E+01 -0.15811825E+01
 -0.13779796E+01 -0.11630412E+01 -0.94191246E+00 -0.71997828E+00 -0.50233862E+00
 -0.29369572E+00 -0.98256499E-01  0.80347939E-01  0.23912430E+00  0.37575955E+00
  0.48864350E+00  0.57687173E+00  0.64022960E+00  0.67915857E+00  0.69470652E+00
  0.68846424E+00  0.66249025E+00  0.61922689E+00  0.56141010E+00  0.49197602E+00
  0.41396699E+00  0.33043972E+00  0.24437822E+00  0.15861360E+00  0.75752858E-01
 -0.18817984E-02 -0.72301883E-01 -0.13388893E+00 -0.18541779E+00 -0.22606686E+00
 -0.25541571E+00 -0.27343078E+00 -0.28044017E+00 -0.27709906E+00 -0.26434705E+00
 -0.24335945E+00 -0.21549405E+00 -0.18223559E+00 -0.14513946E+00 -0.10577672E+00
 -0.65681855E-01 -0.26305007E-01  0.11030290E-01  0.45162634E-01  0.75120864E-01
  0.10014423E+00  0.11969442E+00  0.13345950E+00  0.14135005E+00  0.14348814E+00
 Real Space Part
  0.00000000E+00 -0.20228302E-02 -0.80874463E-02 -0.18182140E-01 -0.32287114E-01
 -0.50374068E-01 -0.72405620E-01 -0.98334585E-01 -0.12810312E+00 -0.16164176E+00
 -0.19886832E+00 -0.23968675E+00 -0.28398594E+00 -0.33163843E+00 -0.38249919E+00
 -0.43640433E+00 -0.49316994E+00 -0.55259093E+00 -0.61443997E+00 -0.67846666E+00
 -0.74439668E+00 -0.81193126E+00 -0.88074680E+00 -0.95049469E+00 -0.10208015E+01
 -0.10912691E+01 -0.11614758E+01 -0.12309767E+01 -0.12993055E+01 -0.13659757E+01
 -0.14304828E+01 -0.14923063E+01 -0.15509125E+01 -0.16057575E+01 -0.16562898E+01
 -0.17019548E+01 -0.17421977E+01 -0.17764681E+01 -0.18042242E+01 -0.18249374E+01
 -0.18380969E+01 -0.18432146E+01 -0.18398303E+01 -0.18275167E+01 -0.18058842E+01
 -0.17745865E+01 -0.17333255E+01 -0.16818562E+01 -0.16199916E+01 -0.15476072E+01
 -0.14646458E+01 -0.13711211E+01 -0.12671219E+01 -0.11528153E+01 -0.10284500E+01
 -0.89435824E+00 -0.75095845E+00 -0.59875635E+00 -0.43834604E+00 -0.27041025E+00
 -0.95720048E-01  0.84866163E-01  0.27040426E+00  0.45986674E+00  0.65214571E+00
  0.84605663E+00  0.10403426E+01  0.12336797E+01  0.14246824E+01  0.16119102E+01
  0.17938744E+01  0.19690461E+01  0.21358640E+01  0.22927434E+01  0.24380849E+01
  0.25702845E+01  0.26877434E+01  0.27888780E+01  0.28721309E+01  0.29359811E+01
  0.29789551E+01  0.29996377E+01  0.29966827E+01  0.29688242E+01  0.29148896E+01
  0.28337872E+01  0.27243940E+01  0.25898555E+01  0.24426112E+01  0.22827940E+01
  0.21087189E+01  0.19188922E+01  0.17120603E+01  0.14871770E+01  0.12434553E+01
  0.98011112E+00  0.69661235E+00  0.39920741E+00  0.49597495E-01  0.00000000E+00
 PAW radial sets
         355   1.13119482004538
(5E20.12)
 augmentation charges (non sperical)
 -0.442432406046E+00  0.117193445946E+00 -0.267056279720E+00  0.386986801643E+00 -0.147928382035E+00
  0.117193445946E+00 -0.311457636593E-01  0.679411339351E-01 -0.995452565148E-01  0.359362424442E-01
 -0.267056279720E+00  0.679411339351E-01 -0.184213260551E+00  0.259468284962E+00 -0.109364832376E+00
  0.386986801643E+00 -0.995452565148E-01  0.259468284962E+00 -0.369138017566E+00  0.149441002342E+00
 -0.147928382035E+00  0.359362424442E-01 -0.109364832376E+00  0.149441002342E+00 -0.537787571927E-01
 uccopancies in atom
  0.200000000281E+01  0.000000000000E+00  0.000000000000E+00  0.000000000000E+00  0.000000000000E+00
  0.000000000000E+00  0.100000000166E+01  0.000000000000E+00  0.000000000000E+00  0.000000000000E+00
  0.000000000000E+00  0.000000000000E+00  0.200000000319E+01  0.000000000000E+00  0.000000000000E+00
  0.000000000000E+00  0.000000000000E+00  0.000000000000E+00  0.000000000000E+00  0.000000000000E+00
  0.000000000000E+00  0.000000000000E+00  0.000000000000E+00  0.000000000000E+00  0.000000000000E+00
 grid
  0.593104192695E-04  0.612390461428E-04  0.632303871506E-04  0.652864816002E-04  0.674094351120E-04
  0.696014217759E-04  0.718646863777E-04  0.742015466983E-04  0.766143958867E-04  0.791057049114E-04
  0.816780250905E-04  0.843339907047E-04  0.870763216948E-04  0.899078264475E-04  0.928314046710E-04
  0.958500503648E-04  0.989668548861E-04  0.102185010115E-03  0.105507811723E-03  0.108938662551E-03
  0.112481076088E-03  0.116138680077E-03  0.119915220222E-03  0.123814564032E-03  0.127840704775E-03
  0.131997765570E-03  0.136290003613E-03  0.140721814528E-03  0.145297736879E-03  0.150022456808E-03
  0.154900812843E-03  0.159937800847E-03  0.165138579134E-03  0.170508473758E-03  0.176052983957E-03
  0.181777787797E-03  0.187688747976E-03  0.193791917834E-03  0.200093547551E-03  0.206600090545E-03
  0.213318210085E-03  0.220254786113E-03  0.227416922289E-03  0.234811953266E-03  0.242447452202E-03
  0.250331238515E-03  0.258471385892E-03  0.266876230554E-03  0.275554379796E-03  0.284514720803E-03
  0.293766429746E-03  0.303318981184E-03  0.313182157764E-03  0.323366060241E-03  0.333881117820E-03
  0.344738098840E-03  0.355948121798E-03  0.367522666737E-03  0.379473587002E-03  0.391813121381E-03
  0.404553906634E-03  0.417708990439E-03  0.431291844751E-03  0.445316379601E-03  0.459796957337E-03
  0.474748407337E-03  0.490186041191E-03  0.506125668386E-03  0.522583612493E-03  0.539576727884E-03
  0.557122416996E-03  0.575238648146E-03  0.593943973939E-03  0.613257550262E-03  0.633199155907E-03
  0.653789212818E-03  0.675048807014E-03  0.696999710177E-03  0.719664401951E-03  0.743066092959E-03
  0.767228748579E-03  0.792177113481E-03  0.817936736971E-03  0.844533999155E-03  0.871996137953E-03
  0.900351276995E-03  0.929628454421E-03  0.959857652619E-03  0.991069828931E-03  0.102329694735E-02
  0.105657201126E-02  0.109092909725E-02  0.112640338995E-02  0.116303121816E-02  0.120085009197E-02
  0.123989874120E-02  0.128021715510E-02  0.132184662323E-02  0.136482977782E-02  0.140921063736E-02
  0.145503465173E-02  0.150234874874E-02  0.155120138215E-02  0.160164258132E-02  0.165372400246E-02
  0.170749898148E-02  0.176302258867E-02  0.182035168505E-02  0.187954498062E-02  0.194066309450E-02
  0.200376861697E-02  0.206892617361E-02  0.213620249143E-02  0.220566646728E-02  0.227738923833E-02
  0.235144425497E-02  0.242790735601E-02  0.250685684633E-02  0.258837357713E-02  0.267254102866E-02
  0.275944539574E-02  0.284917567603E-02  0.294182376119E-02  0.303748453096E-02  0.313625595030E-02
  0.323823916981E-02  0.334353862919E-02  0.345226216430E-02  0.356452111755E-02  0.368043045190E-02
  0.380010886864E-02  0.392367892894E-02  0.405126717932E-02  0.418300428132E-02  0.431902514523E-02
  0.445946906830E-02  0.460447987739E-02  0.475420607623E-02  0.490880099753E-02  0.506842296001E-02
  0.523323543050E-02  0.540340719138E-02  0.557911251339E-02  0.576053133414E-02  0.594784944236E-02
  0.614125866815E-02  0.634095707948E-02  0.654714918495E-02  0.676004614330E-02  0.697986597963E-02
  0.720683380865E-02  0.744118206526E-02  0.768315074254E-02  0.793298763757E-02  0.819094860516E-02
  0.845729781989E-02  0.873230804661E-02  0.901626091984E-02  0.930944723213E-02  0.961216723189E-02
  0.992473093085E-02  0.102474584215E-01  0.105806802051E-01  0.109247375298E-01  0.112799827404E-01
  0.116467796390E-01  0.120255038577E-01  0.124165432432E-01  0.128202982540E-01  0.132371823705E-01
  0.136676225184E-01  0.141120595062E-01  0.145709484760E-01  0.150447593704E-01  0.155339774131E-01
  0.160391036060E-01  0.165606552426E-01  0.170991664373E-01  0.176551886726E-01  0.182292913640E-01
  0.188220624426E-01  0.194341089579E-01  0.200660576991E-01  0.207185558368E-01  0.213922715861E-01
  0.220878948909E-01  0.228061381302E-01  0.235477368478E-01  0.243134505057E-01  0.251040632615E-01
  0.259203847718E-01  0.267632510211E-01  0.276335251782E-01  0.285320984797E-01  0.294598911434E-01
  0.304178533100E-01  0.314069660163E-01  0.324282422004E-01  0.334827277382E-01  0.345715025150E-01
  0.356956815315E-01  0.368564160451E-01  0.380548947493E-01  0.392923449912E-01  0.405700340279E-01
  0.418892703247E-01  0.432514048947E-01  0.446578326828E-01  0.461099939940E-01  0.476093759683E-01
  0.491575141039E-01  0.507559938296E-01  0.524064521282E-01  0.541105792133E-01  0.558701202599E-01
  0.576868771919E-01  0.595627105270E-01  0.614995412825E-01  0.634993529424E-01  0.655641934886E-01
  0.676961774982E-01  0.698974883092E-01  0.721703802561E-01  0.745171809789E-01  0.769402938067E-01
  0.794422002187E-01  0.820254623858E-01  0.846927257941E-01  0.874467219544E-01  0.902902711995E-01
  0.932262855722E-01  0.962577718079E-01  0.993878344133E-01  0.102619678846E+00  0.105956614797E+00
  0.109402059581E+00  0.112959541634E+00  0.116632704128E+00  0.120425308704E+00  0.124341239318E+00
  0.128384506227E+00  0.132559250090E+00  0.136869746208E+00  0.141320408906E+00  0.145915796053E+00
  0.150660613725E+00  0.155559721031E+00  0.160618135085E+00  0.165841036144E+00  0.171233772917E+00
  0.176801868036E+00  0.182551023718E+00  0.188487127600E+00  0.194616258772E+00  0.200944693999E+00
  0.207478914152E+00  0.214225610844E+00  0.221191693281E+00  0.228384295341E+00  0.235810782876E+00
  0.243478761259E+00  0.251396083170E+00  0.259570856638E+00  0.268011453346E+00  0.276726517202E+00
  0.285724973193E+00  0.295016036525E+00  0.304609222058E+00  0.314514354052E+00  0.324741576228E+00
  0.335301362156E+00  0.346204525979E+00  0.357462233489E+00  0.369086013563E+00  0.381087769967E+00
  0.393479793549E+00  0.406274774823E+00  0.419485816969E+00  0.433126449247E+00  0.447210640858E+00
  0.461752815245E+00  0.476767864864E+00  0.492271166440E+00  0.508278596706E+00  0.524806548671E+00
  0.541871948401E+00  0.559492272358E+00  0.577685565293E+00  0.596470458727E+00  0.615866190033E+00
  0.635892622134E+00  0.656570263848E+00  0.677920290886E+00  0.699964567541E+00  0.722725669080E+00
  0.746226904858E+00  0.770492342196E+00  0.795546831021E+00  0.821416029319E+00  0.848126429410E+00
  0.875705385078E+00  0.904181139583E+00  0.933582854586E+00  0.963940640012E+00  0.995285584888E+00
  0.102764978917E+01  0.106106639665E+01  0.109556962883E+01  0.113119482005E+01  0.116797845361E+01
  0.120595819917E+01  0.124517295131E+01  0.128566286936E+01  0.132746941853E+01  0.137063541239E+01
  0.141520505669E+01  0.146122399462E+01  0.150873935362E+01  0.155779979356E+01  0.160845555661E+01
  0.166075851870E+01  0.171476224265E+01  0.177052203297E+01  0.182809499257E+01  0.188754008119E+01
  0.194891817579E+01  0.201229213291E+01  0.207772685302E+01  0.214528934698E+01  0.221504880471E+01
  0.228707666596E+01  0.236144669358E+01  0.243823504897E+01  0.251752037011E+01  0.259938385210E+01
  0.268390933030E+01  0.277118336619E+01  0.286129533600E+01  0.295433752227E+01  0.305040520832E+01
  0.314959677586E+01  0.325201380573E+01  0.335776118191E+01  0.346694719896E+01  0.357968367289E+01
  0.369608605572E+01  0.381627355364E+01  0.394036924917E+01  0.406850022713E+01  0.420079770485E+01
  0.433739716651E+01  0.447843850188E+01  0.462406614962E+01  0.477442924517E+01  0.492968177348E+01
 aepotential
  0.952631263725E+04  0.964448138837E+04  0.975456314052E+04  0.985578578788E+04  0.994740372962E+04
  0.100287044704E+05  0.100990179817E+05  0.101577253464E+05  0.102042677793E+05  0.102381545255E+05
  0.102589708750E+05  0.102663847138E+05  0.102601525224E+05  0.102401243943E+05  0.102062467988E+05
  0.101585655730E+05  0.100972259259E+05  0.100224714338E+05  0.993464342942E+04  0.983417418279E+04
  0.972158474486E+04  0.959747568186E+04  0.946252259895E+04  0.931746448506E+04  0.916309529659E+04
  0.900025525055E+04  0.882981833165E+04  0.865268295058E+04  0.846976125737E+04  0.828196817296E+04
  0.809021284236E+04  0.789538783382E+04  0.769836204318E+04  0.749997217413E+04  0.730101652903E+04
  0.710224927890E+04  0.690437570836E+04  0.670804876729E+04  0.651386661199E+04  0.632237075505E+04
  0.613404566880E+04  0.594931878905E+04  0.576856148701E+04  0.559209061644E+04  0.542017062779E+04
  0.525301616259E+04  0.509079496560E+04  0.493363110625E+04  0.478160835775E+04  0.463477369220E+04
  0.449314080829E+04  0.435669363360E+04  0.422538975022E+04  0.409916370035E+04  0.397793013796E+04
  0.386158680054E+04  0.375001728151E+04  0.364309359357E+04  0.354067851116E+04  0.344262769855E+04
  0.334879162051E+04  0.325901723953E+04  0.317314952254E+04  0.309103273835E+04  0.301251160499E+04
  0.293743223948E+04  0.286564299111E+04  0.279699509713E+04  0.273134325799E+04  0.266854606112E+04
  0.260846634603E+04  0.255097143160E+04  0.249593332442E+04  0.244322882549E+04  0.239273957820E+04
  0.234435210511E+04  0.229795774843E+04  0.225345264280E+04  0.221073759881E+04  0.216971800194E+04
  0.213030369277E+04  0.209240881408E+04  0.205595166838E+04  0.202085455590E+04  0.198704361430E+04
  0.195444865816E+04  0.192300301115E+04  0.189264334400E+04  0.186330951589E+04  0.183494441959E+04
  0.180749382073E+04  0.178090621973E+04  0.175513270326E+04  0.173012680550E+04  0.170584438185E+04
  0.168224347754E+04  0.165928421041E+04  0.163692865512E+04  0.161514073507E+04  0.159388611730E+04
  0.157313212009E+04  0.155284761524E+04  0.153300293966E+04  0.151356982162E+04  0.149452129404E+04
  0.147583162783E+04  0.145747626086E+04  0.143943173576E+04  0.142167563432E+04  0.140418653116E+04
  0.138694393126E+04  0.136992822924E+04  0.135312065417E+04  0.133650323996E+04  0.132005877246E+04
  0.130377076313E+04  0.128762341124E+04  0.127160157188E+04  0.125569073142E+04  0.123987697816E+04
  0.122414698050E+04  0.120848796634E+04  0.119288770247E+04  0.117733447940E+04  0.116181709642E+04
  0.114632484918E+04  0.113084751887E+04  0.111537536451E+04  0.109989911635E+04  0.108440997123E+04
  0.106889959107E+04  0.105336010195E+04  0.103778409603E+04  0.102216463605E+04  0.100649526093E+04
  0.990769994451E+03  0.974983355983E+03  0.959130374023E+03  0.943206601583E+03  0.927208135304E+03
  0.911131636771E+03  0.894974357278E+03  0.878734165591E+03  0.862409579803E+03  0.845999802054E+03
  0.829504757944E+03  0.812925139537E+03  0.796262452796E+03  0.779519069022E+03  0.762698280865E+03
  0.745804361797E+03  0.728842629274E+03  0.711819510525E+03  0.694742609608E+03  0.677620774105E+03
  0.660464158985E+03  0.643284284171E+03  0.626094081741E+03  0.608907927156E+03  0.591741648104E+03
  0.574612503223E+03  0.557539122206E+03  0.540541398498E+03  0.523640326310E+03  0.506857776388E+03
  0.490216209228E+03  0.473738333087E+03  0.457446726543E+03  0.441363463761E+03  0.425509804718E+03
  0.409906041946E+03  0.394571626243E+03  0.379525719415E+03  0.364788329084E+03  0.350382149321E+03
  0.336335137354E+03  0.322683676856E+03  0.309475906531E+03  0.296774459419E+03  0.284657544703E+03
  0.273217223522E+03  0.262554032239E+03  0.252767229451E+03  0.243942678589E+03  0.236139217881E+03
  0.229377103916E+03  0.223630871903E+03  0.218828204507E+03  0.214854852490E+03  0.211564365701E+03
  0.208790743157E+03  0.206362014478E+03  0.204112889969E+03  0.201894837465E+03  0.199582449437E+03
  0.197075844623E+03  0.194299812664E+03  0.191200969231E+03  0.187744151207E+03  0.183908870415E+03
  0.179686195401E+03  0.175076159760E+03  0.170085682692E+03  0.164726969503E+03  0.159016355721E+03
  0.152973546287E+03  0.146621190811E+03  0.139984720490E+03  0.133092369162E+03  0.125975297682E+03
  0.118667742472E+03  0.111207111035E+03  0.103633952598E+03  0.959917520068E+02  0.883265365716E+02
  0.806863655412E+02  0.731208986601E+02  0.656813929673E+02  0.584216000930E+02  0.513999877556E+02
  0.446832991778E+02  0.383505334821E+02  0.324951007757E+02  0.272218111342E+02  0.226355819968E+02
  0.188210696855E+02  0.158165179917E+02  0.135893005505E+02  0.120254114095E+02  0.109425758354E+02
  0.101314445845E+02  0.940447348483E+01  0.862640292176E+01  0.771355776534E+01  0.661421688006E+01
  0.528978498719E+01  0.370655589108E+01  0.183628460087E+01 -0.340429876610E+00 -0.283219529971E+01
 -0.563732949250E+01 -0.874588473244E+01 -0.121419196394E+02 -0.158052066595E+02 -0.197121056075E+02
 -0.238356583862E+02 -0.281450906849E+02 -0.326049582888E+02 -0.371742461413E+02 -0.418058712320E+02
 -0.464472502382E+02 -0.510427534452E+02 -0.555387033675E+02 -0.598905766371E+02 -0.640695706682E+02
 -0.680614654403E+02 -0.718466261986E+02 -0.753536641009E+02 -0.784021705238E+02 -0.806919761208E+02
 -0.819152510457E+02 -0.819963953197E+02 -0.812809655666E+02 -0.803700153411E+02 -0.796837238899E+02
 -0.792925523653E+02 -0.790989337407E+02 -0.790178881667E+02 -0.790255948624E+02 -0.791412015460E+02
 -0.793971216906E+02 -0.798181215627E+02 -0.804134235133E+02 -0.811781763936E+02 -0.820984705271E+02
 -0.831559595743E+02 -0.843307268937E+02 -0.856025543494E+02 -0.869511792018E+02 -0.883560811578E+02
 -0.897961551076E+02 -0.912494997533E+02 -0.926934488490E+02 -0.941049207464E+02 -0.954610762117E+02
 -0.967401177634E+02 -0.979218278454E+02 -0.989876695893E+02 -0.999195685896E+02 -0.100698064703E+03
 -0.101300732658E+03 -0.101703278977E+03 -0.101885157063E+03 -0.101838399317E+03 -0.101574094429E+03
 -0.101120737635E+03 -0.100513655791E+03 -0.997851795892E+02 -0.989574389058E+02 -0.980435041284E+02
 -0.970506850500E+02 -0.959837745044E+02 -0.948469269925E+02 -0.936443824960E+02 -0.923806142707E+02
 -0.910602997969E+02 -0.896882884177E+02 -0.882695821421E+02 -0.868093094610E+02 -0.853126578425E+02
 -0.837847533567E+02 -0.822304895352E+02 -0.806543336626E+02 -0.790601343352E+02 -0.774509849711E+02
 -0.758291898874E+02 -0.741963761522E+02 -0.725537651001E+02 -0.709025670052E+02 -0.692444211960E+02
 -0.675817745118E+02 -0.659181028009E+02 -0.642579295397E+02 -0.626066551705E+02 -0.609702476343E+02
 -0.593548197027E+02 -0.577660213393E+02 -0.562080642857E+02 -0.546822528741E+02 -0.531853847916E+02
 -0.517093202397E+02 -0.502435255983E+02 -0.487807839788E+02 -0.473225202946E+02 -0.458787874838E+02
 -0.444628174404E+02 -0.430854092474E+02 -0.417530890821E+02 -0.404691851589E+02 -0.392353810944E+02
 -0.380523846022E+02 -0.369195487547E+02 -0.358344487979E+02 -0.347926947226E+02 -0.337886822819E+02
 -0.328166268301E+02 -0.318715126229E+02 -0.309496003493E+02 -0.300484990618E+02 -0.291669839945E+02
 -0.283047217549E+02 -0.274620001645E+02 -0.266394986310E+02 -0.258381005815E+02 -0.250587372427E+02
 core charge-density
  0.241912770226E-01  0.256414572997E-01  0.271782019361E-01  0.288066439430E-01  0.305322174751E-01
  0.323606751942E-01  0.342981066059E-01  0.363509574204E-01  0.385260499927E-01  0.408306048977E-01
  0.432722637012E-01  0.458591129882E-01  0.485997097137E-01  0.515031079443E-01  0.545788870625E-01
  0.578371815066E-01  0.612887121243E-01  0.649448192218E-01  0.688174973902E-01  0.729194322002E-01
  0.772640388522E-01  0.818655028798E-01  0.867388230025E-01  0.918998562315E-01  0.973653653319E-01
  0.103153068752E+00  0.109281693131E+00  0.115771028502E+00  0.122641986314E+00  0.129916660384E+00
  0.137618390919E+00  0.145771831737E+00  0.154403020801E+00  0.163539454231E+00  0.173210163900E+00
  0.183445798786E+00  0.194278710189E+00  0.205743040983E+00  0.217874819029E+00  0.230712054903E+00
  0.244294844074E+00  0.258665473679E+00  0.273868534037E+00  0.289951035026E+00  0.306962527472E+00
  0.324955229660E+00  0.343984159101E+00  0.364107269651E+00  0.385385594093E+00  0.407883392269E+00
  0.431668304826E+00  0.456811512648E+00  0.483387901997E+00  0.511476235389E+00  0.541159328184E+00
  0.572524230866E+00  0.605662416928E+00  0.640669976261E+00  0.677647813900E+00  0.716701853923E+00
  0.757943248276E+00  0.801488590201E+00  0.847460131925E+00  0.895986006153E+00  0.947200450886E+00
  0.100124403694E+01  0.105826389752E+01  0.111841395902E+01  0.118185517218E+01  0.124875574265E+01
  0.131929135967E+01  0.139364542176E+01  0.147200925787E+01  0.155458234245E+01  0.164157250268E+01
  0.173319611583E+01  0.182967829474E+01  0.193125305887E+01  0.203816348848E+01  0.215066185896E+01
  0.226900975234E+01  0.239347814250E+01  0.252434745042E+01  0.266190756565E+01  0.280645782947E+01
  0.295830697540E+01  0.311777302194E+01  0.328518311226E+01  0.346087329529E+01  0.364518824203E+01
  0.383848089081E+01  0.404111201468E+01  0.425344970377E+01  0.447586875513E+01  0.470874996222E+01
  0.495247929577E+01  0.520744696760E+01  0.547404636847E+01  0.575267287102E+01  0.604372248853E+01
  0.634759038001E+01  0.666466919233E+01  0.699534722973E+01  0.734000644161E+01  0.769902021917E+01
  0.807275099248E+01  0.846154761930E+01  0.886574255840E+01  0.928564882032E+01  0.972155669001E+01
  0.101737302169E+02  0.106424034693E+02  0.111277765530E+02  0.116300113931E+02  0.121492272857E+02
  0.126854962229E+02  0.132388380025E+02  0.138092151352E+02  0.143965275669E+02  0.150006072370E+02
  0.156212125015E+02  0.162580224506E+02  0.169106311622E+02  0.175785419327E+02  0.182611615400E+02
  0.189577945954E+02  0.196676380523E+02  0.203897759472E+02  0.211231744549E+02  0.218666773522E+02
  0.226190019896E+02  0.233787358829E+02  0.241443340410E+02  0.249141171598E+02  0.256862708155E+02
  0.264588458016E+02  0.272297597560E+02  0.279968002344E+02  0.287576293852E+02  0.295097903852E+02
  0.302507157935E+02  0.309777379772E+02  0.316881017559E+02  0.323789794012E+02  0.330474881140E+02
  0.336907100803E+02  0.343057151863E+02  0.348895864402E+02  0.354394481149E+02  0.359524965848E+02
  0.364260337793E+02  0.368575031262E+02  0.372445277922E+02  0.375849509647E+02  0.378768778454E+02
  0.381187189457E+02  0.383092341937E+02  0.384475772750E+02  0.385333395400E+02  0.385665927227E+02
  0.385479296261E+02  0.384785018485E+02  0.383600535435E+02  0.381949501421E+02  0.379862009077E+02
  0.377374741578E+02  0.374531039661E+02  0.371380871638E+02  0.367980694943E+02  0.364393198382E+02
  0.360686915250E+02  0.356935698886E+02  0.353218053990E+02  0.349616319259E+02  0.346215699527E+02
  0.343103148639E+02  0.340366107787E+02  0.338091107834E+02  0.336362248370E+02  0.335259570688E+02
  0.334857346373E+02  0.335222309755E+02  0.336411860973E+02  0.338472284082E+02  0.341437014152E+02
  0.345325001862E+02  0.350139223587E+02  0.355865388147E+02  0.362470892675E+02  0.369904080052E+02
  0.378093848771E+02  0.386949662795E+02  0.396362003839E+02  0.406203301410E+02  0.416329366908E+02
  0.426581347221E+02  0.436788200594E+02  0.446769683244E+02  0.456339819366E+02  0.465310810024E+02
  0.473497318413E+02  0.480721050525E+02  0.486815532009E+02  0.491630964651E+02  0.495039030102E+02
  0.496937495009E+02  0.497254461458E+02  0.495952100334E+02  0.493029703739E+02  0.488525896762E+02
  0.482519859314E+02  0.475131425984E+02  0.466519956247E+02  0.456881899013E+02  0.446447014069E+02
  0.435473257865E+02  0.424240391237E+02  0.413042420356E+02  0.402179037499E+02  0.391946282518E+02
  0.382626696511E+02  0.374479283249E+02  0.367729629162E+02  0.362560557148E+02  0.359103702271E+02
  0.357432398038E+02  0.357556248021E+02  0.359417726108E+02  0.362891122941E+02  0.367784021329E+02
  0.373841492675E+02  0.380752933805E+02  0.388161413316E+02  0.395675236932E+02  0.402881358964E+02
  0.409360192145E+02  0.414701288447E+02  0.418519283806E+02  0.420469438957E+02  0.420262084125E+02
  0.417675293698E+02  0.412565175311E+02  0.404873249656E+02  0.394630515743E+02  0.381957935457E+02
  0.367063225496E+02  0.350234008306E+02  0.331827540052E+02  0.312257396299E+02  0.291977648203E+02
  0.271465196654E+02  0.251201041957E+02  0.231651344587E+02  0.213249169614E+02  0.196377793980E+02
  0.181356382076E+02  0.168428688890E+02  0.157755229098E+02  0.149409101160E+02  0.143375359023E+02
  0.139553734405E+02  0.137764712884E+02  0.137759205446E+02  0.139232137476E+02  0.141839148228E+02
  0.145214176559E+02  0.148986240928E+02  0.152794801215E+02  0.156303687682E+02  0.159213323711E+02
  0.161270760460E+02  0.162277054632E+02  0.162091661415E+02  0.160633737917E+02  0.157880497268E+02
  0.153862960320E+02  0.148659593975E+02  0.142388400844E+02  0.135198047316E+02  0.127258595678E+02
  0.118752353812E+02  0.109865282198E+02  0.100779302504E+02  0.916657704511E+01  0.826802726084E+01
  0.739588139486E+01  0.656153853755E+01  0.577408125095E+01  0.504027788894E+01  0.436467782819E+01
  0.374978136904E+01  0.319626317886E+01  0.270323200795E+01  0.226851270371E+01  0.188893742071E+01
  0.156063079236E+01  0.127927354746E+01  0.104032270436E+01  0.839197661215E+00  0.671417350431E+00
  0.532702713123E+00  0.419049229165E+00  0.326774861360E+00  0.252547658411E+00  0.193396624173E+00
  0.146709138142E+00  0.110217970160E+00  0.819806551574E-01  0.603536654221E-01  0.439634609754E-01
  0.316761388481E-01  0.225670577130E-01  0.158914959419E-01  0.110571148179E-01  0.759874755469E-02
  0.515582075760E-02  0.345253815272E-02  0.228081596905E-02  0.148585313341E-02  0.954144324858E-03
  0.603695933612E-03  0.376179664375E-03  0.230751329960E-03  0.139269077592E-03  0.826621041407E-04
  0.482246264732E-04  0.276376967324E-04  0.155509889803E-04  0.858591461887E-05  0.464876977867E-05
  0.246699363527E-05  0.128243891007E-05  0.652682288115E-06  0.325017952869E-06  0.158260539757E-06
  0.752988020555E-07  0.349797421625E-07  0.158525049456E-07  0.700247413571E-08  0.301216542158E-08
  0.126056308630E-08  0.512719112600E-09  0.202480793236E-09  0.775588333121E-10  0.287853642532E-10
  0.103407526150E-10  0.359182549972E-11  0.120502726980E-11  0.390052469434E-12  0.121676452139E-12
  0.365379580668E-13  0.105490828061E-13  0.292466292558E-14  0.777612965506E-15  0.198011393436E-15
 kinetic energy-density
  0.205015755348E+06  0.204787995787E+06  0.204585679655E+06  0.204409434837E+06  0.204259905984E+06
  0.204137754598E+06  0.204043659769E+06  0.203978320251E+06  0.203942454949E+06  0.203936805019E+06
  0.203962135396E+06  0.204019235754E+06  0.204108924209E+06  0.204232046224E+06  0.204389479825E+06
  0.204582133202E+06  0.204810954572E+06  0.205076923176E+06  0.205381063680E+06  0.205724438323E+06
  0.206108153504E+06  0.206533365007E+06  0.207001276072E+06  0.207513137637E+06  0.208070259005E+06
  0.208674002658E+06  0.209325790109E+06  0.210027103926E+06  0.210779488131E+06  0.211584554853E+06
  0.212443982432E+06  0.213359520691E+06  0.214332992220E+06  0.215366295584E+06  0.216461408678E+06
  0.217620389714E+06  0.218845381272E+06  0.220138614081E+06  0.221502408257E+06  0.222939177803E+06
  0.224451434059E+06  0.226041788696E+06  0.227712957728E+06  0.229467765248E+06  0.231309147853E+06
  0.233240158355E+06  0.235263970657E+06  0.237383884170E+06  0.239603328668E+06  0.241925869306E+06
  0.244355211811E+06  0.246895207869E+06  0.249549860698E+06  0.252323330804E+06  0.255219941901E+06
  0.258244187032E+06  0.261400734781E+06  0.264694435735E+06  0.268130328973E+06  0.271713648841E+06
  0.275449831523E+06  0.279344522083E+06  0.283403581544E+06  0.287633093385E+06  0.292039371159E+06
  0.296628964998E+06  0.301408668922E+06  0.306385527688E+06  0.311566843425E+06  0.316960182159E+06
  0.322573380840E+06  0.328414552945E+06  0.334492094325E+06  0.340814689235E+06  0.347391314498E+06
  0.354231244895E+06  0.361344056130E+06  0.368739628468E+06  0.376428149197E+06  0.384420113495E+06
  0.392726324916E+06  0.401357894564E+06  0.410326238796E+06  0.419643075641E+06  0.429320418953E+06
  0.439370571547E+06  0.449806116061E+06  0.460639902859E+06  0.471885036446E+06  0.483554858810E+06
  0.495662929504E+06  0.508223002953E+06  0.521249002236E+06  0.534754988756E+06  0.548755128091E+06
  0.563263651638E+06  0.578294812955E+06  0.593862839673E+06  0.609981879516E+06  0.626665940878E+06
  0.643928826328E+06  0.661784062200E+06  0.680244817435E+06  0.699323817815E+06  0.719033253152E+06
  0.739384672605E+06  0.760388877714E+06  0.782055800403E+06  0.804394377351E+06  0.827412410801E+06
  0.851116424254E+06  0.875511504734E+06  0.900601137732E+06  0.926387031918E+06  0.952868934070E+06
  0.980044433749E+06  0.100790876114E+07  0.103645457281E+07  0.106567173187E+07  0.109554707907E+07
  0.112606419744E+07  0.115720317147E+07  0.118894034137E+07  0.122124805447E+07  0.125409441520E+07
  0.128744303613E+07  0.132125279116E+07  0.135547757457E+07  0.139006606827E+07  0.142496152003E+07
  0.146010153666E+07  0.149541789600E+07  0.153083638060E+07  0.156627663935E+07  0.160165208006E+07
  0.163686979882E+07  0.167183055105E+07  0.170642877000E+07  0.174055263749E+07  0.177408421365E+07
  0.180689963042E+07  0.183886935542E+07  0.186985853059E+07  0.189972739250E+07  0.192833177781E+07
  0.195552371933E+07  0.198115213635E+07  0.200506362222E+07  0.202710333141E+07  0.204711596716E+07
  0.206494686963E+07  0.208044320223E+07  0.209345523354E+07  0.210383770895E+07  0.211145130513E+07
  0.211616415769E+07  0.211785345058E+07  0.211640705272E+07  0.211172518578E+07  0.210372210354E+07
  0.209232776166E+07  0.207748945369E+07  0.205917338735E+07  0.203736617299E+07  0.201207619433E+07
  0.198333483071E+07  0.195119749908E+07  0.191574448401E+07  0.187708152448E+07  0.183534012767E+07
  0.179067758212E+07  0.174327664562E+07  0.169334488702E+07  0.164111366569E+07  0.158683673759E+07
  0.153078848222E+07  0.147326175102E+07  0.141456534326E+07  0.135502112274E+07  0.129496079523E+07
  0.123472234513E+07  0.117464635924E+07  0.111507180592E+07  0.105633200358E+07  0.998750329264E+06
  0.942635982904E+06  0.888279849735E+06  0.835950549574E+06  0.785890752650E+06  0.738313833525E+06
  0.693400927242E+06  0.651298446038E+06  0.612116110025E+06  0.575925540288E+06  0.542759456874E+06
  0.512611516443E+06  0.485436814318E+06  0.461153063434E+06  0.439642448404E+06  0.420754137275E+06
  0.404307417473E+06  0.390095406235E+06  0.377889270924E+06  0.367442880228E+06  0.358497795578E+06
  0.350788501505E+06  0.344047765644E+06  0.338012013406E+06  0.332426598363E+06  0.327050848704E+06
  0.321662770755E+06  0.316063294877E+06  0.310079955152E+06  0.303569903754E+06  0.296422173633E+06
  0.288559118847E+06  0.279936981828E+06  0.270545559825E+06  0.260406968833E+06  0.249573530923E+06
  0.238124838144E+06  0.226164071331E+06  0.213813674642E+06  0.201210508800E+06  0.188500631013E+06
  0.175833870728E+06  0.163358466965E+06  0.151215834402E+06  0.139535956749E+06  0.128433296004E+06
  0.118003521260E+06  0.108321152643E+06  0.994380237351E+05  0.913826274066E+05  0.841603270029E+05
  0.777544184270E+05  0.721279967395E+05  0.672265385530E+05  0.629810709566E+05  0.593117659878E+05
  0.561317785512E+05  0.533511380563E+05  0.508805095202E+05  0.486346571169E+05  0.465354698865E+05
  0.445144414487E+05  0.425145306891E+05  0.404913657428E+05  0.384137861896E+05  0.362637476634E+05
  0.340356374053E+05  0.317350695140E+05  0.293772470409E+05  0.269849956538E+05  0.245865935472E+05
  0.222135379732E+05  0.198984139301E+05  0.176729532334E+05  0.155663882680E+05  0.136040681880E+05
  0.118061711721E+05  0.101867316713E+05  0.875308999423E+04  0.750608186108E+04  0.644084844567E+04
  0.554789795880E+04  0.481390987853E+04  0.422264228715E+04  0.375582997189E+04  0.339413536303E+04
  0.311806744114E+04  0.290881192819E+04  0.274893426725E+04  0.262292799469E+04  0.251759118648E+04
  0.242222671598E+04  0.232867632661E+04  0.223121064756E+04  0.212630540926E+04  0.201233757851E+04
  0.188923510947E+04  0.175811023650E+04  0.162090425570E+04  0.148005704974E+04  0.133822331909E+04
  0.119803611782E+04  0.106193083615E+04  0.932010782828E+03  0.809976240028E+03  0.697090759308E+03
  0.594184649890E+03  0.501683479243E+03  0.419651507616E+03  0.347843088307E+03  0.285759602242E+03
  0.232711140582E+03  0.187884098596E+03  0.150401380158E+03  0.119373867524E+03  0.939402819954E+02
  0.732917812019E+02  0.566870667430E+02  0.434602486246E+02  0.330235646541E+02  0.248663912740E+02
  0.185516046396E+02  0.137101455876E+02  0.100344949667E+02  0.727163085008E+01  0.521590847881E+01
  0.370218427021E+01  0.259940239286E+01  0.180477809506E+01  0.123864562638E+01  0.839988600503E+00
  0.562634420978E+00  0.372069817927E+00  0.242819312948E+00  0.156320549152E+00  0.992281820237E-01
  0.620798328993E-01  0.382622248988E-01  0.232218590393E-01  0.138715997660E-01  0.815163448445E-02
  0.471003839733E-02  0.267438187350E-02  0.149135878962E-02  0.816253263877E-03  0.438193453470E-03
  0.230579747872E-03  0.118856836446E-03  0.599837406790E-04  0.296226406800E-04  0.143073954444E-04
  0.675425513133E-05  0.311434595731E-05  0.140147287011E-05  0.614976328147E-06  0.262900676761E-06
  0.109387091846E-06  0.442528673048E-07  0.173883822811E-07  0.662900262226E-08  0.244924109726E-08
  0.876055490150E-09  0.303020337422E-09  0.101245277258E-09  0.326406816798E-10  0.101422748483E-10
  0.303389862236E-11  0.872645983283E-12  0.241051166196E-12  0.638639471802E-13  0.162067310240E-13
 mkinetic energy-density pseudized
  0.203667034839E-05  0.217127877593E-05  0.231478379717E-05  0.246777340929E-05  0.263087447165E-05
  0.280475527420E-05  0.299012827580E-05  0.318775302342E-05  0.339843926429E-05  0.362305026377E-05
  0.386250634252E-05  0.411778864736E-05  0.438994317146E-05  0.468008504019E-05  0.498940308020E-05
  0.531916469054E-05  0.567072103568E-05  0.604551258179E-05  0.644507499887E-05  0.687104545302E-05
  0.732516931456E-05  0.780930730946E-05  0.832544314354E-05  0.887569163043E-05  0.946230735683E-05
  0.100876939204E-04  0.107544137785E-04  0.114651987469E-04  0.122229611942E-04  0.130308059737E-04
  0.138920431463E-04  0.148102015425E-04  0.157890432214E-04  0.168325788857E-04  0.179450843149E-04
  0.191311178846E-04  0.203955392445E-04  0.217435292299E-04  0.231806110895E-04  0.247126731166E-04
  0.263459927757E-04  0.280872624235E-04  0.299436167301E-04  0.319226619129E-04  0.340325069015E-04
  0.362817965639E-04  0.386797471272E-04  0.412361839402E-04  0.439615817319E-04  0.468671075302E-04
  0.499646664174E-04  0.532669503098E-04  0.567874899618E-04  0.605407104056E-04  0.645419900568E-04
  0.688077237251E-04  0.733553897898E-04  0.782036218155E-04  0.833722849006E-04  0.888825570717E-04
  0.947570160577E-04  0.101019731799E-03  0.107696365072E-03  0.114814272626E-03  0.122402619280E-03
  0.130492497415E-03  0.139117054376E-03  0.148311628283E-03  0.158113892825E-03  0.168564011625E-03
  0.179704802798E-03  0.191581914397E-03  0.204244011440E-03  0.217742975317E-03  0.232134116352E-03
  0.247476400437E-03  0.263832690627E-03  0.281270004710E-03  0.299859789798E-03  0.319678215067E-03
  0.340806483843E-03  0.363331166311E-03  0.387344554219E-03  0.412945039016E-03  0.440237514990E-03
  0.469333809040E-03  0.500353138855E-03  0.533422601377E-03  0.568677693535E-03  0.606262867405E-03
  0.646332122054E-03  0.689049634491E-03  0.734590432329E-03  0.783141110886E-03  0.834900597689E-03
  0.890080967491E-03  0.948908311154E-03  0.101162366195E-02  0.107848398307E-02  0.114976322041E-02
  0.122575342489E-02  0.130676594900E-02  0.139313272234E-02  0.148520761151E-02  0.158336786983E-02
  0.168801568285E-02  0.179957981604E-02  0.191851737127E-02  0.204531565943E-02  0.218049419673E-02
  0.232460683291E-02  0.247824402011E-02  0.264203523163E-02  0.281665154043E-02  0.300280836808E-02
  0.320126841533E-02  0.341284478615E-02  0.363840431837E-02  0.387887113415E-02  0.413523042512E-02
  0.440853248752E-02  0.469989702384E-02  0.501051772869E-02  0.534166717748E-02  0.569470203802E-02
  0.607106862635E-02  0.647230882941E-02  0.690006641892E-02  0.735609378213E-02  0.784225909703E-02
  0.836055398131E-02  0.891310164636E-02  0.950216558949E-02  0.101301588600E-01  0.107996539371E-01
  0.115133932591E-01  0.122743004484E-01  0.130854922767E-01  0.139502914195E-01  0.148722400527E-01
  0.158551143457E-01  0.169029399103E-01  0.180200082691E-01  0.192108944093E-01  0.204804754939E-01
  0.218339508067E-01  0.232768630113E-01  0.248151208119E-01  0.264550231057E-01  0.282032847279E-01
  0.300670638908E-01  0.320539914299E-01  0.341722019756E-01  0.364303671754E-01  0.388377311022E-01
  0.414041479909E-01  0.441401224561E-01  0.470568523532E-01  0.501662744549E-01  0.534811131278E-01
  0.570149322037E-01  0.607821902547E-01  0.647982994929E-01  0.690796885314E-01  0.736438692562E-01
  0.785095080763E-01  0.836965018364E-01  0.892260586921E-01  0.951207842703E-01  0.101404773455E+00
  0.108103708159E+00  0.115244961471E+00  0.122857708584E+00  0.130973044933E+00  0.139624112023E+00
  0.148846231410E+00  0.158677047378E+00  0.169156678845E+00  0.180327881100E+00  0.192236217969E+00
  0.204930245092E+00  0.218461704973E+00  0.232885734580E+00  0.248261086231E+00  0.264650362617E+00
  0.282120266830E+00  0.300741868294E+00  0.320590885595E+00  0.341747987210E+00  0.364299111231E+00
  0.388335805200E+00  0.413955587262E+00  0.441262329878E+00  0.470366667418E+00  0.501386429011E+00
  0.534447098086E+00  0.569682300120E+00  0.607234320155E+00  0.647254651712E+00  0.689904578817E+00
  0.735355792879E+00  0.783791046236E+00  0.835404844256E+00  0.890404177890E+00  0.949009298652E+00
  0.101145453802E+01  0.107798917327E+01  0.114887834178E+01  0.122440400584E+01  0.130486596991E+01
  0.139058295238E+01  0.148189371365E+01  0.157915824231E+01  0.168275900107E+01  0.179310223391E+01
  0.191061933572E+01  0.203576828520E+01  0.216903514184E+01  0.231093560693E+01  0.246201664831E+01
  0.262285818782E+01  0.279407484981E+01  0.297631776785E+01  0.317027644633E+01  0.337668067177E+01
  0.359630246778E+01  0.382995808579E+01  0.407851002168E+01  0.434286904653E+01  0.462399623700E+01
  0.492290498809E+01  0.524066298792E+01  0.557839413006E+01  0.593728033524E+01  0.631856324909E+01
  0.672354577736E+01  0.715359341383E+01  0.761013530947E+01  0.809466502340E+01  0.860874088793E+01
  0.915398591001E+01  0.973208712094E+01  0.103447942743E+02  0.109939177789E+02  0.116813257389E+02
  0.124089399582E+02  0.131787307480E+02  0.139927103587E+02  0.148529248358E+02  0.157614440800E+02
  0.167203498668E+02  0.177317215579E+02  0.187976192115E+02  0.199200637726E+02  0.211010140000E+02
  0.223423397595E+02  0.236457912899E+02  0.250129640274E+02  0.264452585543E+02  0.279438352276E+02
  0.295095630335E+02  0.311429622247E+02  0.328441403070E+02  0.346127209811E+02  0.364477656971E+02
  0.383476875580E+02  0.403101574224E+02  0.423320022033E+02  0.444090955571E+02  0.465362414049E+02
  0.487070510440E+02  0.509138149924E+02  0.531473711866E+02  0.553969717173E+02  0.576501509698E+02
  0.598925988273E+02  0.621080435176E+02  0.642781497335E+02  0.663824388415E+02  0.683982392986E+02
  0.703006768083E+02  0.720627152365E+02  0.736552608209E+02  0.750473436750E+02  0.762063919083E+02
  0.770986147162E+02  0.776895113600E+02  0.779445228208E+02  0.778298417813E+02  0.773133941117E+02
  0.763660007764E+02  0.749627225596E+02  0.730843806571E+02  0.707192334297E+02  0.678647728476E+02
  0.645295828376E+02  0.607351754552E+02  0.565176893837E+02  0.519292989418E+02  0.470391414299E+02
  0.419335279727E+02  0.367151609524E+02  0.315010441041E+02  0.264187457382E+02  0.216006699836E+02
  0.171760165673E+02  0.132601802231E+02  0.994147242602E+01  0.726525837525E+01  0.521590847881E+01
  0.370218427021E+01  0.259940239286E+01  0.180477809506E+01  0.123864562638E+01  0.839988600503E+00
  0.562634420978E+00  0.372069817927E+00  0.242819312948E+00  0.156320549152E+00  0.992281820237E-01
  0.620798328993E-01  0.382622248988E-01  0.232218590393E-01  0.138715997660E-01  0.815163448445E-02
  0.471003839733E-02  0.267438187350E-02  0.149135878962E-02  0.816253263877E-03  0.438193453470E-03
  0.230579747872E-03  0.118856836446E-03  0.599837406790E-04  0.296226406800E-04  0.143073954444E-04
  0.675425513133E-05  0.311434595731E-05  0.140147287011E-05  0.614976328147E-06  0.262900676761E-06
  0.109387091846E-06  0.442528673048E-07  0.173883822811E-07  0.662900262226E-08  0.244924109726E-08
  0.876055490150E-09  0.303020337422E-09  0.101245277258E-09  0.326406816798E-10  0.101422748483E-10
  0.303389862236E-11  0.872645983283E-12  0.241051166196E-12  0.638639471802E-13  0.162067310240E-13
 local pseudopotential core
 -0.679100632298E+02 -0.918631612218E+02 -0.120611393268E+03 -0.154442967166E+03 -0.193755688790E+03
 -0.239156333737E+03 -0.290999138351E+03 -0.349930106337E+03 -0.416415761470E+03 -0.490492594394E+03
 -0.573142297672E+03 -0.664335675591E+03 -0.764340031572E+03 -0.873167375639E+03 -0.991008796643E+03
 -0.111777046341E+04 -0.125264426087E+04 -0.139546880739E+04 -0.154552830340E+04 -0.170166923363E+04
 -0.186268327003E+04 -0.202685178938E+04 -0.219255757653E+04 -0.235798625480E+04 -0.252093092648E+04
 -0.267859622613E+04 -0.282882671932E+04 -0.296888908262E+04 -0.309640684980E+04 -0.320830551105E+04
 -0.330314172319E+04 -0.337818237794E+04 -0.343167211373E+04 -0.346270167856E+04 -0.347004262436E+04
 -0.345371039706E+04 -0.341354389933E+04 -0.335053165610E+04 -0.326583165944E+04 -0.316122927004E+04
 -0.303894685206E+04 -0.290135648128E+04 -0.275129783723E+04 -0.259159439786E+04 -0.242517329749E+04
 -0.225490528481E+04 -0.208349517711E+04 -0.191346356044E+04 -0.174704873946E+04 -0.158618512562E+04
 -0.143248266308E+04 -0.128721478092E+04 -0.115132644822E+04 -0.102545222010E+04 -0.909944737767E+03
 -0.804899633506E+03 -0.710198713531E+03 -0.625556961497E+03 -0.550528802213E+03 -0.484572319835E+03
 -0.427075104881E+03 -0.377364904131E+03 -0.334762288704E+03 -0.298563940892E+03 -0.268106503621E+03
 -0.242730362360E+03 -0.221824549316E+03 -0.204808171969E+03 -0.191158226068E+03 -0.180386013741E+03
 -0.172064764627E+03 -0.165811038907E+03 -0.161272554872E+03 -0.158153886767E+03 -0.156196638504E+03
 -0.155174245562E+03 -0.154897008090E+03 -0.155199265459E+03 -0.155946267365E+03 -0.157023126912E+03
 -0.158335890814E+03 -0.159808540263E+03 -0.161377239736E+03 -0.162993128738E+03 -0.164617700082E+03
 -0.166219856683E+03 -0.167777618225E+03 -0.169273973498E+03 -0.170697536107E+03 -0.172040654851E+03
 -0.173299151355E+03 -0.174471123151E+03 -0.175556703676E+03 -0.176557720798E+03 -0.177476718978E+03
 -0.178317411030E+03 -0.179083911452E+03 -0.179780626909E+03 -0.180412165494E+03 -0.180983225973E+03
 -0.181498373188E+03 -0.181962106279E+03 -0.182378724445E+03 -0.182752328450E+03 -0.183086776768E+03
 -0.183385698984E+03 -0.183652441380E+03 -0.183890129399E+03 -0.184101625187E+03 -0.184289554581E+03
 -0.184456318908E+03 -0.184604108606E+03 -0.184734906127E+03 -0.184850509076E+03 -0.184952541423E+03
 -0.185042466142E+03 -0.185121597943E+03 -0.185191119148E+03 -0.185252085130E+03 -0.185305442948E+03
 -0.185352037131E+03 -0.185392620234E+03 -0.185427862026E+03 -0.185458358094E+03 -0.185484636100E+03
 -0.185507164167E+03 -0.185526355861E+03 -0.185542576614E+03 -0.185556148315E+03 -0.185567353873E+03
 -0.185576441763E+03 -0.185583629337E+03 -0.185589106420E+03 -0.185593037884E+03 -0.185595566752E+03
 -0.185596816261E+03 -0.185596892027E+03 -0.185595884004E+03 -0.185593868016E+03 -0.185590907293E+03
 -0.185587053802E+03 -0.185582349336E+03 -0.185576826544E+03 -0.185570509930E+03 -0.185563416484E+03
 -0.185555556529E+03 -0.185546934274E+03 -0.185537548351E+03 -0.185527392348E+03 -0.185516455191E+03
 -0.185504721551E+03 -0.185492172178E+03 -0.185478784203E+03 -0.185464531400E+03 -0.185449384453E+03
 -0.185433311171E+03 -0.185416276696E+03 -0.185398243697E+03 -0.185379172559E+03 -0.185359021553E+03
 -0.185337747011E+03 -0.185315303484E+03 -0.185291643911E+03 -0.185266719783E+03 -0.185240481303E+03
 -0.185212877549E+03 -0.185183856649E+03 -0.185153365942E+03 -0.185121352156E+03 -0.185087761577E+03
 -0.185052540236E+03 -0.185015634080E+03 -0.184976989161E+03 -0.184936551818E+03 -0.184894268867E+03
 -0.184850087783E+03 -0.184803956894E+03 -0.184755825572E+03 -0.184705644420E+03 -0.184653365472E+03
 -0.184598942385E+03 -0.184542330643E+03 -0.184483487760E+03 -0.184422373493E+03 -0.184358950068E+03
 -0.184293182410E+03 -0.184225038397E+03 -0.184154489134E+03 -0.184081509242E+03 -0.184006077191E+03
 -0.183928175659E+03 -0.183847791939E+03 -0.183764918400E+03 -0.183679552994E+03 -0.183591699853E+03
 -0.183501369945E+03 -0.183408581831E+03 -0.183313362529E+03 -0.183215748482E+03 -0.183115786669E+03
 -0.183013535860E+03 -0.182909068036E+03 -0.182802469992E+03 -0.182693845143E+03 -0.182583315559E+03
 -0.182471024239E+03 -0.182357137657E+03 -0.182241848601E+03 -0.182125379316E+03 -0.182007984988E+03
 -0.181889957571E+03 -0.181771629976E+03 -0.181653380633E+03 -0.181535638414E+03 -0.181418887902E+03
 -0.181303674981E+03 -0.181190612678E+03 -0.181080387178E+03 -0.180973763893E+03 -0.180871593395E+03
 -0.180774817001E+03 -0.180684471702E+03 -0.180601694033E+03 -0.180527722403E+03 -0.180463897271E+03
 -0.180411658395E+03 -0.180372538272E+03 -0.180348150685E+03 -0.180340173124E+03 -0.180350321675E+03
 -0.180380316866E+03 -0.180431838830E+03 -0.180506470197E+03 -0.180605625201E+03 -0.180730463831E+03
 -0.180881790352E+03 -0.181059936382E+03 -0.181264629862E+03 -0.181494852860E+03 -0.181748693133E+03
 -0.182023196734E+03 -0.182314231640E+03 -0.182616375097E+03 -0.182922839963E+03 -0.183225457245E+03
 -0.183514732922E+03 -0.183779996284E+03 -0.184009654033E+03 -0.184191558701E+03 -0.184313491319E+03
 -0.184363746877E+03 -0.184331797277E+03 -0.184208991396E+03 -0.183989237032E+03 -0.183669597300E+03
 -0.183250727393E+03 -0.182737079986E+03 -0.182136821971E+03 -0.181461433533E+03 -0.180725001447E+03
 -0.179943266249E+03 -0.179132527581E+03 -0.178308541273E+03 -0.177485545253E+03 -0.176675525804E+03
 -0.175887786787E+03 -0.175128825934E+03 -0.174402470411E+03 -0.173710190985E+03 -0.173051504882E+03
 -0.172424388421E+03 -0.171825643493E+03 -0.171251188023E+03 -0.170696263035E+03 -0.170155564668E+03
 -0.169623318143E+03 -0.169093313635E+03 -0.168558923168E+03 -0.168013114711E+03 -0.167448475671E+03
 -0.166857253771E+03 -0.166231419070E+03 -0.165562746944E+03 -0.164842918408E+03 -0.164063631470E+03
 -0.163216715596E+03 -0.162294241056E+03 -0.161288615978E+03 -0.160192666237E+03 -0.158999696522E+03
 -0.157703534409E+03 -0.156298562605E+03 -0.154779747031E+03 -0.153142669860E+03 -0.151383576892E+03
 -0.149499447820E+03 -0.147488096265E+03 -0.145348304201E+03 -0.143079992597E+03 -0.140684426441E+03
 -0.138164446712E+03 -0.135524711686E+03 -0.132771910132E+03 -0.129914870625E+03 -0.126963085589E+03
 -0.123946448614E+03 -0.120871751230E+03 -0.117730544638E+03 -0.114517954543E+03 -0.111045929817E+03
 -0.107551834988E+03 -0.104154740404E+03 -0.100848666919E+03 -0.976345014385E+02 -0.945552167138E+02
 -0.915766097802E+02 -0.886920735611E+02 -0.858985583104E+02 -0.831931364653E+02 -0.805729927604E+02
 -0.780354138625E+02 -0.755777812573E+02 -0.731975652705E+02 -0.708923201645E+02 -0.686596800891E+02
 -0.664973556018E+02 -0.644031306639E+02 -0.623748600006E+02 -0.604104666784E+02 -0.585079396953E+02
 -0.566653313790E+02 -0.548807545809E+02 -0.531523805103E+02 -0.514784381789E+02 -0.498572117144E+02
 -0.482870409835E+02 -0.467663185436E+02 -0.452934901995E+02 -0.438670423964E+02 -0.424855190829E+02
 -0.411475056296E+02 -0.398516305983E+02 -0.385965648708E+02 -0.373810290207E+02 -0.362037698817E+02
 -0.350635913250E+02 -0.339593189855E+02 -0.328898245882E+02 -0.318540121705E+02 -0.308508210472E+02
 -0.298792238123E+02 -0.289382254368E+02 -0.280268622377E+02 -0.271442008879E+02 -0.262893374777E+02
 pspotential valence only
 -0.316512605854E+00 -0.242696106069E+02 -0.530178426628E+02 -0.868494165712E+02 -0.126162138206E+03
 -0.171562783165E+03 -0.223405587791E+03 -0.282336555791E+03 -0.348822210938E+03 -0.422899043877E+03
 -0.505548747171E+03 -0.596742125107E+03 -0.696746481106E+03 -0.805573825193E+03 -0.923415246217E+03
 -0.105017691301E+04 -0.118505071049E+04 -0.132787525703E+04 -0.147793475307E+04 -0.163407568333E+04
 -0.179508971976E+04 -0.195925823914E+04 -0.212496402633E+04 -0.229039270464E+04 -0.245333737636E+04
 -0.261100267605E+04 -0.276123316928E+04 -0.290129553263E+04 -0.302881329986E+04 -0.314071196117E+04
 -0.323554817337E+04 -0.331058882817E+04 -0.336407856404E+04 -0.339510812893E+04 -0.340244907480E+04
 -0.338611684759E+04 -0.334595034994E+04 -0.328293810680E+04 -0.319823811024E+04 -0.309363572094E+04
 -0.297135330307E+04 -0.283376293241E+04 -0.268370428849E+04 -0.252400084925E+04 -0.235757974901E+04
 -0.218731173649E+04 -0.201590162895E+04 -0.184587001246E+04 -0.167945519166E+04 -0.151859157801E+04
 -0.136488911568E+04 -0.121962123374E+04 -0.108373290128E+04 -0.957858673410E+03 -0.842351191349E+03
 -0.737306087375E+03 -0.642605167706E+03 -0.557963415998E+03 -0.482935257062E+03 -0.416978775055E+03
 -0.359481560496E+03 -0.309771360167E+03 -0.267168745190E+03 -0.230970397856E+03 -0.200512961096E+03
 -0.175136820379E+03 -0.154231007916E+03 -0.137214631187E+03 -0.123564685946E+03 -0.112792474323E+03
 -0.104471225958E+03 -0.982175010369E+02 -0.936790178537E+02 -0.905603506577E+02 -0.886031033626E+02
 -0.875807114527E+02 -0.873034750821E+02 -0.876057336236E+02 -0.883527367806E+02 -0.894295976617E+02
 -0.907423629847E+02 -0.922150139498E+02 -0.937837150385E+02 -0.953996057633E+02 -0.970241789441E+02
 -0.986263375025E+02 -0.100184101131E+03 -0.101680458630E+03 -0.103104023611E+03 -0.104447144884E+03
 -0.105705644085E+03 -0.106877618754E+03 -0.107963202344E+03 -0.108964222733E+03 -0.109883224395E+03
 -0.110723920160E+03 -0.111490424541E+03 -0.112187144218E+03 -0.112818687302E+03 -0.113389752577E+03
 -0.113904904905E+03 -0.114368643448E+03 -0.114785267425E+03 -0.115158877625E+03 -0.115493332549E+03
 -0.115792261807E+03 -0.116059011709E+03 -0.116296707731E+03 -0.116508212052E+03 -0.116696150541E+03
 -0.116862924565E+03 -0.117010724601E+03 -0.117141533144E+03 -0.117257147843E+03 -0.117359192716E+03
 -0.117449130790E+03 -0.117528276828E+03 -0.117597813210E+03 -0.117658795373E+03 -0.117712170441E+03
 -0.117758783014E+03 -0.117799385724E+03 -0.117834648418E+03 -0.117865166769E+03 -0.117891468531E+03
 -0.117914021924E+03 -0.117933240618E+03 -0.117949490155E+03 -0.117963092543E+03 -0.117974330816E+03
 -0.117983453583E+03 -0.117990678339E+03 -0.117996195061E+03 -0.118000168785E+03 -0.118002742705E+03
 -0.118004040245E+03 -0.118004167215E+03 -0.118003213781E+03 -0.118001255990E+03 -0.117998357310E+03
 -0.117994569962E+03 -0.117989936012E+03 -0.117984488395E+03 -0.117978251925E+03 -0.117971243920E+03
 -0.117963475052E+03 -0.117954949905E+03 -0.117945667508E+03 -0.117935621873E+03 -0.117924802379E+03
 -0.117913194177E+03 -0.117900778533E+03 -0.117887533126E+03 -0.117873432313E+03 -0.117858447401E+03
 -0.117842546863E+03 -0.117825696549E+03 -0.117807859882E+03 -0.117788998052E+03 -0.117769070188E+03
 -0.117748033534E+03 -0.117725843618E+03 -0.117702454417E+03 -0.117677818530E+03 -0.117651887339E+03
 -0.117624611185E+03 -0.117595939535E+03 -0.117565821159E+03 -0.117534204311E+03 -0.117501036904E+03
 -0.117466266700E+03 -0.117429841496E+03 -0.117391709315E+03 -0.117351818596E+03 -0.117310118393E+03
 -0.117266558569E+03 -0.117221089997E+03 -0.117173664761E+03 -0.117124236358E+03 -0.117072759903E+03
 -0.117019192343E+03 -0.116963492664E+03 -0.116905622116E+03 -0.116845544439E+03 -0.116783226104E+03
 -0.116718636562E+03 -0.116651748518E+03 -0.116582538216E+03 -0.116510985764E+03 -0.116437075475E+03
 -0.116360796259E+03 -0.116282142054E+03 -0.116201112307E+03 -0.116117712521E+03 -0.116031954874E+03
 -0.115943858914E+03 -0.115853452346E+03 -0.115760771937E+03 -0.115665864520E+03 -0.115568788154E+03
 -0.115469613418E+03 -0.115368424878E+03 -0.115265322749E+03 -0.115160424748E+03 -0.115053868193E+03
 -0.114945812334E+03 -0.114836440971E+03 -0.114725965355E+03 -0.114614627415E+03 -0.114502703318E+03
 -0.114390507379E+03 -0.114278396346E+03 -0.114166774055E+03 -0.114056096455E+03 -0.113946876991E+03
 -0.113839692309E+03 -0.113735188218E+03 -0.113634085847E+03 -0.113537187844E+03 -0.113445384470E+03
 -0.113359659336E+03 -0.113281094504E+03 -0.113210874542E+03 -0.113150289044E+03 -0.113100733009E+03
 -0.113063704312E+03 -0.113040797379E+03 -0.113033691974E+03 -0.113044135886E+03 -0.113073920102E+03
 -0.113124844943E+03 -0.113198675551E+03 -0.113297085108E+03 -0.113421584310E+03 -0.113573435889E+03
 -0.113753553542E+03 -0.113962385435E+03 -0.114199783624E+03 -0.114464862347E+03 -0.114755850094E+03
 -0.115069942756E+03 -0.115403167829E+03 -0.115750272372E+03 -0.116104649990E+03 -0.116458324061E+03
 -0.116802005277E+03 -0.117125240754E+03 -0.117416668943E+03 -0.117664388894E+03 -0.117856443845E+03
 -0.117981407617E+03 -0.118029048586E+03 -0.117991030798E+03 -0.117861597030E+03 -0.117638166357E+03
 -0.117321772146E+03 -0.116917268750E+03 -0.116433249590E+03 -0.115881647655E+03 -0.115277030270E+03
 -0.114635647809E+03 -0.113974340644E+03 -0.113309437896E+03 -0.112655785064E+03 -0.112026012069E+03
 -0.111430104316E+03 -0.110875280868E+03 -0.110366131941E+03 -0.109904935038E+03 -0.109492059792E+03
 -0.109126382612E+03 -0.108805655162E+03 -0.108526796815E+03 -0.108286103670E+03 -0.108079382463E+03
 -0.107902026343E+03 -0.107749052424E+03 -0.107615120226E+03 -0.107494547094E+03 -0.107381332783E+03
 -0.107269201119E+03 -0.107151662432E+03 -0.107022096512E+03 -0.106873852380E+03 -0.106700358468E+03
 -0.106495235199E+03 -0.106252401592E+03 -0.105966168601E+03 -0.105631314183E+03 -0.105243138229E+03
 -0.104797499066E+03 -0.104290836439E+03 -0.103720188459E+03 -0.103083211385E+03 -0.102378211367E+03
 -0.101604196427E+03 -0.100760955268E+03 -0.998491672182E+02 -0.988705448152E+02 -0.978280068712E+02
 -0.967258742394E+02 -0.955700703359E+02 -0.943682886516E+02 -0.931300511977E+02 -0.918651762063E+02
 -0.906034534696E+02 -0.893510733458E+02 -0.880984149341E+02 -0.868387816817E+02 -0.853815654556E+02
 -0.838599287945E+02 -0.822970599099E+02 -0.806954421068E+02 -0.790635520144E+02 -0.774509849710E+02
 -0.758291898874E+02 -0.741963761521E+02 -0.725537651001E+02 -0.709025670051E+02 -0.692444211960E+02
 -0.675817745118E+02 -0.659181028009E+02 -0.642579295397E+02 -0.626066551705E+02 -0.609702476342E+02
 -0.593548197027E+02 -0.577660213393E+02 -0.562080642857E+02 -0.546822528741E+02 -0.531853847916E+02
 -0.517093202396E+02 -0.502435255983E+02 -0.487807839787E+02 -0.473225202945E+02 -0.458787874838E+02
 -0.444628174403E+02 -0.430854092474E+02 -0.417530890821E+02 -0.404691851589E+02 -0.392353810944E+02
 -0.380523846022E+02 -0.369195487547E+02 -0.358344487979E+02 -0.347926947226E+02 -0.337886822819E+02
 -0.328166268301E+02 -0.318715126229E+02 -0.309496003493E+02 -0.300484990617E+02 -0.291669839945E+02
 -0.283047217549E+02 -0.274620001645E+02 -0.266394986310E+02 -0.258381005815E+02 -0.250587372427E+02
 core charge-density (pseudized)
  0.153731802102E-07  0.163892305574E-07  0.174724341080E-07  0.186272291781E-07  0.198583474228E-07
  0.211708332235E-07  0.225700643570E-07  0.240617740301E-07  0.256520743709E-07  0.273474814728E-07
  0.291549420933E-07  0.310818621178E-07  0.331361369042E-07  0.353261836337E-07  0.376609757989E-07
  0.401500799721E-07  0.428036950030E-07  0.456326938079E-07  0.486486679198E-07  0.518639749839E-07
  0.552917893916E-07  0.589461562613E-07  0.628420489865E-07  0.669954305882E-07  0.714233191211E-07
  0.761438574040E-07  0.811763873575E-07  0.865415292555E-07  0.922612662150E-07  0.983590342693E-07
  0.104859818395E-06  0.111790254883E-06  0.119178740484E-06  0.127055548752E-06  0.135452954095E-06
  0.144405364012E-06  0.153949460075E-06  0.164124348225E-06  0.174971719010E-06  0.186536018403E-06
  0.198864629914E-06  0.212008068742E-06  0.226020188753E-06  0.240958403140E-06  0.256883919668E-06
  0.273861991466E-06  0.291962184393E-06  0.311258662076E-06  0.331830489789E-06  0.353761958409E-06
  0.377142929794E-06  0.402069204975E-06  0.428642916693E-06  0.456972947874E-06  0.487175377763E-06
  0.519373957544E-06  0.553700617395E-06  0.590296007055E-06  0.629310072115E-06  0.670902668406E-06
  0.715244216979E-06  0.762516402389E-06  0.812912917115E-06  0.866640255194E-06  0.923918558292E-06
  0.984982517712E-06  0.105008233600E-05  0.111948475210E-05  0.119347413430E-05  0.127235364536E-05
  0.135644648470E-05  0.144609721260E-05  0.154167316206E-05  0.164356594378E-05  0.175219305080E-05
  0.186799956905E-05  0.199146000100E-05  0.212308020988E-05  0.226339949229E-05  0.241299278789E-05
  0.257247303508E-05  0.274249368236E-05  0.292375136568E-05  0.311698876275E-05  0.332299763594E-05
  0.354262207633E-05  0.377676196212E-05  0.402637664562E-05  0.429248888393E-05  0.457618902930E-05
  0.487863949654E-05  0.520107952557E-05  0.554483025875E-05  0.591130015378E-05  0.630199075427E-05
  0.671850284167E-05  0.716254299374E-05  0.763593057653E-05  0.814060519823E-05  0.867863465581E-05
  0.925222340661E-05  0.986372159988E-05  0.105156347051E-04  0.112106337764E-04  0.119515663958E-04
  0.127414683385E-04  0.135835760104E-04  0.144813397060E-04  0.154384377436E-04  0.164587915337E-04
  0.175465816434E-04  0.187062649220E-04  0.199425927580E-04  0.212606305430E-04  0.226657784211E-04
  0.241637934086E-04  0.257608129764E-04  0.274633801890E-04  0.292784705054E-04  0.312135203492E-04
  0.332764575673E-04  0.354757338998E-04  0.378203595944E-04  0.403199403081E-04  0.429847164452E-04
  0.458256050941E-04  0.488542447330E-04  0.520830428883E-04  0.555252269405E-04  0.591948982842E-04
  0.631070900640E-04  0.672778287236E-04  0.717241996165E-04  0.764644169493E-04  0.815178983408E-04
  0.869053443033E-04  0.926488229681E-04  0.987718604032E-04  0.105299536890E-03  0.112258589551E-03
  0.119677521752E-03  0.127586719711E-03  0.136018576811E-03  0.145007626099E-03  0.154590681525E-03
  0.164806988496E-03  0.175698384342E-03  0.187309469371E-03  0.199687789182E-03  0.212884028994E-03
  0.226952220770E-03  0.241949963979E-03  0.257938660892E-03  0.274983767360E-03  0.293155060087E-03
  0.312526921492E-03  0.333178643288E-03  0.355194750017E-03  0.378665343848E-03  0.403686472008E-03
  0.430360518344E-03  0.458796620567E-03  0.489111114871E-03  0.521428009693E-03  0.555879490505E-03
  0.592606457672E-03  0.631759099490E-03  0.673497502705E-03  0.717992302925E-03  0.765425377495E-03
  0.815990583586E-03  0.869894544387E-03  0.927357486500E-03  0.988614131821E-03  0.105391464738E-02
  0.112352565682E-02  0.119773131753E-02  0.127683446743E-02  0.136115784595E-02  0.145104539389E-02
  0.154686363704E-02  0.164900315878E-02  0.175788016741E-02  0.187393816383E-02  0.199764971604E-02
  0.212951834679E-02  0.227008054156E-02  0.241990788401E-02  0.257960932669E-02  0.274983360522E-02
  0.293127180437E-02  0.312466008521E-02  0.333078258268E-02  0.355047448356E-02  0.378462529530E-02
  0.403418231654E-02  0.430015432076E-02  0.458361546488E-02  0.488570943529E-02  0.520765384403E-02
  0.555074488852E-02  0.591636228850E-02  0.630597451457E-02  0.672114432255E-02  0.716353460888E-02
  0.763491460203E-02  0.813716640521E-02  0.867229190604E-02  0.924242006833E-02  0.984981462145E-02
  0.104968821621E-01  0.111861806827E-01  0.119204285409E-01  0.127025138813E-01  0.135355045224E-01
  0.144226583167E-01  0.153674339935E-01  0.163735024859E-01  0.174447587478E-01  0.185853340542E-01
  0.197996087812E-01  0.210922256512E-01  0.224681034253E-01  0.239324510152E-01  0.254907819802E-01
  0.271489293614E-01  0.289130607969E-01  0.307896938434E-01  0.327857114180E-01  0.349083772510E-01
  0.371653512234E-01  0.395647044341E-01  0.421149338185E-01  0.448249761051E-01  0.477042208626E-01
  0.507625223495E-01  0.540102098312E-01  0.574580959806E-01  0.611174829174E-01  0.650001653789E-01
  0.691184304429E-01  0.734850531403E-01  0.781132872105E-01  0.830168501494E-01  0.882099015959E-01
  0.937070139794E-01  0.995231342265E-01  0.105673535180E+00  0.112173755233E+00  0.119039524521E+00
  0.126286675839E+00  0.133931038267E+00  0.141988311307E+00  0.150473917134E+00  0.159402828364E+00
  0.168789368559E+00  0.178646982505E+00  0.188987973122E+00  0.199823201738E+00  0.211161748351E+00
  0.223010528450E+00  0.235373863014E+00  0.248252998384E+00  0.261645572991E+00  0.275545028280E+00
  0.289939961766E+00  0.304813420979E+00  0.320142138145E+00  0.335895706896E+00  0.352035704152E+00
  0.368514762643E+00  0.385275602407E+00  0.402250033136E+00  0.419357943467E+00  0.436506298361E+00
  0.453588171640E+00  0.470481847645E+00  0.487050033803E+00  0.503139234794E+00  0.518579348761E+00
  0.533183556668E+00  0.546748587084E+00  0.559055450163E+00  0.569870745718E+00  0.578948660422E+00
  0.586033777215E+00  0.590864824677E+00  0.593179493598E+00  0.592720440274E+00  0.589242578258E+00
  0.582521729478E+00  0.572364657971E+00  0.558620440841E+00  0.541193037064E+00  0.520054790831E+00
  0.495260448089E+00  0.466961069562E+00  0.435416989349E+00  0.401008696717E+00  0.364244215903E+00
  0.325761237092E+00  0.286321932294E+00  0.246798105258E+00  0.208144121523E+00  0.171355006872E+00
  0.137407272655E+00  0.107180526845E+00  0.813588807584E-01  0.603126953532E-01  0.439634609754E-01
  0.316761388481E-01  0.225670577130E-01  0.158914959419E-01  0.110571148179E-01  0.759874755469E-02
  0.515582075760E-02  0.345253815272E-02  0.228081596905E-02  0.148585313341E-02  0.954144324858E-03
  0.603695933612E-03  0.376179664375E-03  0.230751329960E-03  0.139269077592E-03  0.826621041407E-04
  0.482246264732E-04  0.276376967324E-04  0.155509889803E-04  0.858591461887E-05  0.464876977867E-05
  0.246699363527E-05  0.128243891007E-05  0.652682288115E-06  0.325017952869E-06  0.158260539757E-06
  0.752988020555E-07  0.349797421625E-07  0.158525049456E-07  0.700247413571E-08  0.301216542158E-08
  0.126056308630E-08  0.512719112600E-09  0.202480793236E-09  0.775588333121E-10  0.287853642532E-10
  0.103407526150E-10  0.359182549972E-11  0.120502726980E-11  0.390052469434E-12  0.121676452139E-12
  0.365379580668E-13  0.105490828061E-13  0.292466292558E-14  0.777612965506E-15  0.198011393436E-15
 pseudo wavefunction
  0.189921221758E-03  0.196096986041E-03  0.202473570767E-03  0.209057506114E-03  0.215855534607E-03
  0.222874618021E-03  0.230121944509E-03  0.237604935965E-03  0.245331255627E-03  0.253308815919E-03
  0.261545786558E-03  0.270050602921E-03  0.278831974681E-03  0.287898894729E-03  0.297260648380E-03
  0.306926822887E-03  0.316907317254E-03  0.327212352377E-03  0.337852481509E-03  0.348838601070E-03
  0.360181961801E-03  0.371894180292E-03  0.383987250873E-03  0.396473557901E-03  0.409365888440E-03
  0.422677445356E-03  0.436421860842E-03  0.450613210372E-03  0.465266027120E-03  0.480395316843E-03
  0.496016573247E-03  0.512145793851E-03  0.528799496377E-03  0.545994735658E-03  0.563749121107E-03
  0.582080834753E-03  0.601008649854E-03  0.620551950128E-03  0.640730749604E-03  0.661565713111E-03
  0.683078177449E-03  0.705290173233E-03  0.728224447459E-03  0.751904486795E-03  0.776354541633E-03
  0.801599650926E-03  0.827665667829E-03  0.854579286172E-03  0.882368067798E-03  0.911060470791E-03
  0.940685878612E-03  0.971274630198E-03  0.100285805102E-02  0.103546848519E-02  0.106913932853E-02
  0.110390506283E-02  0.113980129112E-02  0.117686477416E-02  0.121513346804E-02  0.125464656310E-02
  0.129544452404E-02  0.133756913135E-02  0.138106352410E-02  0.142597224412E-02  0.147234128162E-02
  0.152021812228E-02  0.156965179586E-02  0.162069292643E-02  0.167339378421E-02  0.172780833909E-02
  0.178399231588E-02  0.184200325140E-02  0.190190055337E-02  0.196374556130E-02  0.202760160921E-02
  0.209353409058E-02  0.216161052524E-02  0.223190062855E-02  0.230447638277E-02  0.237941211076E-02
  0.245678455211E-02  0.253667294169E-02  0.261915909081E-02  0.270432747095E-02  0.279226530029E-02
  0.288306263299E-02  0.297681245141E-02  0.307361076130E-02  0.317355669010E-02  0.327675258847E-02
  0.338330413501E-02  0.349332044450E-02  0.360691417963E-02  0.372420166629E-02  0.384530301272E-02
  0.397034223242E-02  0.409944737113E-02  0.423275063792E-02  0.437038854049E-02  0.451250202498E-02
  0.465923662015E-02  0.481074258642E-02  0.496717506963E-02  0.512869425986E-02  0.529546555534E-02
  0.546765973178E-02  0.564545311710E-02  0.582902777191E-02  0.601857167579E-02  0.621427891964E-02
  0.641634990429E-02  0.662499154553E-02  0.684041748581E-02  0.706284831279E-02  0.729251178499E-02
  0.752964306476E-02  0.777448495881E-02  0.802728816651E-02  0.828831153627E-02  0.855782233022E-02
  0.883609649744E-02  0.912341895611E-02  0.942008388468E-02  0.972639502259E-02  0.100426659807E-01
  0.103692205615E-01  0.107063930904E-01  0.110545287566E-01  0.114139839661E-01  0.117851267057E-01
  0.121683369180E-01  0.125640068900E-01  0.129725416529E-01  0.133943593958E-01  0.138298918916E-01
  0.142795849379E-01  0.147438988109E-01  0.152233087351E-01  0.157183053668E-01  0.162293952943E-01
  0.167571015533E-01  0.173019641595E-01  0.178645406575E-01  0.184454066880E-01  0.190451565728E-01
  0.196644039183E-01  0.203037822386E-01  0.209639455985E-01  0.216455692762E-01  0.223493504481E-01
  0.230760088943E-01  0.238262877275E-01  0.246009541439E-01  0.254008001983E-01  0.262266436038E-01
  0.270793285558E-01  0.279597265829E-01  0.288687374234E-01  0.298072899294E-01  0.307763429997E-01
  0.317768865403E-01  0.328099424555E-01  0.338765656692E-01  0.349778451772E-01  0.361149051322E-01
  0.372889059610E-01  0.385010455162E-01  0.397525602615E-01  0.410447264937E-01  0.423788616000E-01
  0.437563253526E-01  0.451785212417E-01  0.466468978465E-01  0.481629502465E-01  0.497282214724E-01
  0.513443039989E-01  0.530128412783E-01  0.547355293175E-01  0.565141182976E-01  0.583504142372E-01
  0.602462807002E-01  0.622036405482E-01  0.642244777374E-01  0.663108391618E-01  0.684648365407E-01
  0.706886483527E-01  0.729845218143E-01  0.753547749042E-01  0.778017984314E-01  0.803280581481E-01
  0.829360969053E-01  0.856285368498E-01  0.884080816624E-01  0.912775188343E-01  0.942397219797E-01
  0.972976531828E-01  0.100454365375E+00  0.103713004742E+00  0.107076813148E+00  0.110549130586E+00
  0.114133397637E+00  0.117833157935E+00  0.121652060637E+00  0.125593862878E+00  0.129662432216E+00
  0.133861749046E+00  0.138195908972E+00  0.142669125138E+00  0.147285730482E+00  0.152050179913E+00
  0.156967052390E+00  0.162041052878E+00  0.167277014164E+00  0.172679898504E+00  0.178254799077E+00
  0.184006941217E+00  0.189941683382E+00  0.196064517831E+00  0.202381070961E+00  0.208897103262E+00
  0.215618508845E+00  0.222551314474E+00  0.229701678051E+00  0.237075886493E+00  0.244680352904E+00
  0.252521612996E+00  0.260606320629E+00  0.268941242417E+00  0.277533251255E+00  0.286389318674E+00
  0.295516505892E+00  0.304921953414E+00  0.314612869047E+00  0.324596514147E+00  0.334880187932E+00
  0.345471209664E+00  0.356376898491E+00  0.367604550718E+00  0.379161414265E+00  0.391054660051E+00
  0.403291350015E+00  0.415878401463E+00  0.428822547436E+00  0.442130292720E+00  0.455807865154E+00
  0.469861161821E+00  0.484295689723E+00  0.499116500485E+00  0.514328118644E+00  0.529934463025E+00
  0.545938760735E+00  0.562343453232E+00  0.579150093981E+00  0.596359237146E+00  0.613970316817E+00
  0.631981516247E+00  0.650389626610E+00  0.669189894824E+00  0.688375860027E+00  0.707939178353E+00
  0.727869435759E+00  0.748153948730E+00  0.768777552858E+00  0.789722379439E+00  0.810967620439E+00
  0.832489282416E+00  0.854259930294E+00  0.876248422182E+00  0.898419636868E+00  0.920734196019E+00
  0.943148183657E+00  0.965612866033E+00  0.988074415654E+00  0.101047364391E+01  0.103274574746E+01
  0.105482007443E+01  0.107661991704E+01  0.109806233845E+01  0.111905804199E+01  0.113951129202E+01
  0.115931989602E+01  0.117837525788E+01  0.119656251271E+01  0.121376075283E+01  0.122984335421E+01
  0.124467841077E+01  0.125812928192E+01  0.127005525539E+01  0.128031232274E+01  0.128875405920E+01
  0.129523259177E+01  0.129959963048E+01  0.130170752631E+01  0.130141030631E+01  0.129856462194E+01
  0.129303053010E+01  0.128467200996E+01  0.127335710172E+01  0.125895753896E+01  0.124134773534E+01
  0.122040298245E+01  0.119599672186E+01  0.116799677619E+01  0.113626046557E+01  0.110062860480E+01
  0.106092946084E+01  0.101739165500E+01  0.970627656257E+00  0.921278671789E+00  0.869980467944E+00
  0.817353899049E+00  0.763996204092E+00  0.710473189025E+00  0.657312361614E+00  0.604997065059E+00
  0.553961649277E+00  0.504587727887E+00  0.457201587558E+00  0.412072828060E+00  0.369414301366E+00
  0.329383372608E+00  0.292084450328E+00  0.257572640908E+00  0.225858300793E+00  0.196912209502E+00
  0.170671074958E+00  0.147043099492E+00  0.125913359333E+00  0.107148770107E+00  0.906024458056E-01
  0.761173656319E-01  0.635294846591E-01  0.526706790533E-01  0.433719586095E-01  0.354670229149E-01
  0.287957202970E-01  0.232068087351E-01  0.185597396342E-01  0.147255838461E-01  0.115873687534E-01
  0.904003853984E-02  0.699015345072E-02  0.535539022897E-02  0.406389439927E-02  0.305353606281E-02
  0.227111603864E-02  0.167155335726E-02  0.121707029450E-02  0.876383251943E-03  0.623907902106E-03
  0.438989991278E-03  0.305175262424E-03  0.209531543843E-03  0.142033478491E-03  0.950166170679E-04
 ae wavefunction
  0.547865118779E-02  0.564042158387E-02  0.580692557204E-02  0.597829911236E-02  0.615468190474E-02
  0.633621748159E-02  0.652305330208E-02  0.671534084796E-02  0.691323572100E-02  0.711689774190E-02
  0.732649105075E-02  0.754218420886E-02  0.776415030197E-02  0.799256704487E-02  0.822761688709E-02
  0.846948711990E-02  0.871836998420E-02  0.897446277961E-02  0.923796797402E-02  0.950909331429E-02
  0.978805193712E-02  0.100750624807E-01  0.103703491960E-01  0.106741420593E-01  0.109866768830E-01
  0.113081954275E-01  0.116389455117E-01  0.119791811228E-01  0.123291625255E-01  0.126891563690E-01
  0.130594357929E-01  0.134402805310E-01  0.138319770125E-01  0.142348184602E-01  0.146491049865E-01
  0.150751436841E-01  0.155132487140E-01  0.159637413884E-01  0.164269502475E-01  0.169032111319E-01
  0.173928672473E-01  0.178962692224E-01  0.184137751593E-01  0.189457506743E-01  0.194925689299E-01
  0.200546106557E-01  0.206322641585E-01  0.212259253191E-01  0.218359975758E-01  0.224628918939E-01
  0.231070267175E-01  0.237688279057E-01  0.244487286487E-01  0.251471693642E-01  0.258645975718E-01
  0.266014677437E-01  0.273582411301E-01  0.281353855574E-01  0.289333751963E-01  0.297526902999E-01
  0.305938169060E-01  0.314572465053E-01  0.323434756693E-01  0.332530056379E-01  0.341863418617E-01
  0.351439934983E-01  0.361264728573E-01  0.371342947918E-01  0.381679760332E-01  0.392280344646E-01
  0.403149883299E-01  0.414293553736E-01  0.425716519084E-01  0.437423918043E-01  0.449420853965E-01
  0.461712383056E-01  0.474303501661E-01  0.487199132567E-01  0.500404110282E-01  0.513923165224E-01
  0.527760906753E-01  0.541921805002E-01  0.556410171419E-01  0.571230137971E-01  0.586385634930E-01
  0.601880367165E-01  0.617717788881E-01  0.633901076709E-01  0.650433101081E-01  0.667316395802E-01
  0.684553125738E-01  0.702145052538E-01  0.720093498295E-01  0.738399307071E-01  0.757062804183E-01
  0.776083753180E-01  0.795461310392E-01  0.815193977000E-01  0.835279548504E-01  0.855715061521E-01
  0.876496737826E-01  0.897619925544E-01  0.919079037430E-01  0.940867486145E-01  0.962977616471E-01
  0.985400634401E-01  0.100812653304E+00  0.103114401531E+00  0.105444041332E+00  0.107800160456E+00
  0.110181192469E+00  0.112585407715E+00  0.115010903946E+00  0.117455596630E+00  0.119917208946E+00
  0.122393261483E+00  0.124881061634E+00  0.127377692727E+00  0.129880002891E+00  0.132384593695E+00
  0.134887808580E+00  0.137385721122E+00  0.139874123152E+00  0.142348512797E+00  0.144804082466E+00
  0.147235706865E+00  0.149637931080E+00  0.152004958814E+00  0.154330640853E+00  0.156608463856E+00
  0.158831539550E+00  0.160992594469E+00  0.163083960324E+00  0.165097565165E+00  0.167024925453E+00
  0.168857139225E+00  0.170584880501E+00  0.172198395129E+00  0.173687498270E+00  0.175041573730E+00
  0.176249575379E+00  0.177300030895E+00  0.178181048112E+00  0.178880324231E+00  0.179385158215E+00
  0.179682466668E+00  0.179758803522E+00  0.179600383905E+00  0.179193112515E+00  0.178522616899E+00
  0.177574286022E+00  0.176333314501E+00  0.174784752940E+00  0.172913564749E+00  0.170704689867E+00
  0.168143115807E+00  0.165213956409E+00  0.161902538707E+00  0.158194498264E+00  0.154075883351E+00
  0.149533268253E+00  0.144553876007E+00  0.139125710782E+00  0.133237700071E+00  0.126879846794E+00
  0.120043391321E+00  0.112720983338E+00  0.104906863348E+00  0.965970535035E-01  0.877895572922E-01
  0.784845674579E-01  0.686846813533E-01  0.583951227207E-01  0.476239686840E-01  0.363823805021E-01
  0.246848363878E-01  0.125493644454E-01 -0.222647511877E-05 -0.129441204537E-01 -0.262462753910E-01
 -0.398742140298E-01 -0.537888282619E-01 -0.679462001502E-01 -0.822974434273E-01 -0.967885696562E-01
 -0.111360383727E+00 -0.125948413905E+00 -0.140482882148E+00 -0.154888720833E+00 -0.169085642304E+00
 -0.182988267750E+00 -0.196506321869E+00 -0.209544899521E+00 -0.222004810240E+00 -0.233783005970E+00
 -0.244773096923E+00 -0.254865959855E+00 -0.263950442489E+00 -0.271914167061E+00 -0.278644435090E+00
 -0.284029234405E+00 -0.287958348198E+00 -0.290324564433E+00 -0.291024982267E+00 -0.289962410325E+00
 -0.287046849612E+00 -0.282197051588E+00 -0.275342139541E+00 -0.266423278757E+00 -0.255395378298E+00
 -0.242228804361E+00 -0.226911082344E+00 -0.209448561911E+00 -0.189868016605E+00 -0.168218147031E+00
 -0.144570954305E+00 -0.119022948540E+00 -0.916961556597E-01 -0.627388848567E-01 -0.323262189482E-01
 -0.660190799035E-03  0.320303884880E-01  0.654904795807E-01  0.994397670654E-01  0.133574031080E+00
  0.167566950790E+00  0.201072351162E+00  0.233726908817E+00  0.265153340069E+00  0.294964098098E+00
  0.322765595470E+00  0.348162938899E+00  0.370765123140E+00  0.390190604027E+00  0.406073166403E+00
  0.418068010187E+00  0.425857978772E+00  0.429159843378E+00  0.427730541543E+00  0.421373256020E+00
  0.409943215209E+00  0.393353096039E+00  0.371577911746E+00  0.344659268233E+00  0.312708873085E+00
  0.275911181678E+00  0.234525066245E+00  0.188884397751E+00  0.139397438530E+00  0.865449574735E-01
  0.308770002673E-01 -0.269917253479E-01 -0.863878579680E-01 -0.146586763771E+00 -0.206821249060E+00
 -0.266291549046E+00 -0.324176504334E+00 -0.379645714325E+00 -0.431872166871E+00 -0.480044445334E+00
 -0.523377530186E+00 -0.561122095704E+00 -0.592574135128E+00 -0.617087814881E+00 -0.634091878100E+00
 -0.643105679626E+00 -0.643751202510E+00 -0.635761094171E+00 -0.618984293656E+00 -0.593390076379E+00
 -0.559070467619E+00 -0.516240628961E+00 -0.465236857492E+00 -0.406512064482E+00 -0.340628844677E+00
 -0.268250402288E+00 -0.190129659543E+00 -0.107096874386E+00 -0.200460757854E-01  0.700793942196E-01
  0.162301952808E+00  0.255625185980E+00  0.349049313748E+00  0.441586423491E+00  0.532275184814E+00
  0.620194773557E+00  0.704477763264E+00  0.784321764242E+00  0.858999594302E+00  0.927867676867E+00
  0.990372237303E+00  0.104605277655E+01  0.109454252861E+01  0.113556632057E+01  0.116893722860E+01
  0.119455387884E+01  0.121239950568E+01  0.122254233076E+01  0.122513569307E+01  0.122041645040E+01
  0.120870102473E+01  0.119037927394E+01  0.116590669364E+01  0.113579543786E+01  0.110060451863E+01
  0.106092946084E+01  0.101739165500E+01  0.970627656257E+00  0.921278671789E+00  0.869980467944E+00
  0.817353899049E+00  0.763996204092E+00  0.710473189025E+00  0.657312361614E+00  0.604997065059E+00
  0.553961649277E+00  0.504587727887E+00  0.457201587558E+00  0.412072828060E+00  0.369414301366E+00
  0.329383372608E+00  0.292084450328E+00  0.257572640908E+00  0.225858300793E+00  0.196912209502E+00
  0.170671074958E+00  0.147043099492E+00  0.125913359333E+00  0.107148770107E+00  0.906024458056E-01
  0.761173656319E-01  0.635294846591E-01  0.526706790533E-01  0.433719586095E-01  0.354670229149E-01
  0.287957202970E-01  0.232068087351E-01  0.185597396342E-01  0.147255838461E-01  0.115873687534E-01
  0.904003853984E-02  0.699015345072E-02  0.535539022897E-02  0.406389439927E-02  0.305353606281E-02
  0.227111603864E-02  0.167155335726E-02  0.121707029450E-02  0.876383251943E-03  0.623907902106E-03
  0.438989991278E-03  0.305175262424E-03  0.209531543843E-03  0.142033478491E-03  0.950166170679E-04
 pseudo wavefunction
 -0.528185839579E-04 -0.545361125282E-04 -0.563094908415E-04 -0.581405349919E-04 -0.600311201286E-04
 -0.619831823756E-04 -0.639987208151E-04 -0.660797995342E-04 -0.682285497391E-04 -0.704471719375E-04
 -0.727379381919E-04 -0.751031944470E-04 -0.775453629312E-04 -0.800669446381E-04 -0.826705218871E-04
 -0.853587609683E-04 -0.881344148727E-04 -0.910003261118E-04 -0.939594296284E-04 -0.970147558022E-04
 -0.100169433553E-03 -0.103426693546E-03 -0.106789871499E-03 -0.110262411598E-03 -0.113847870026E-03
 -0.117549918606E-03 -0.121372348556E-03 -0.125319074377E-03 -0.129394137858E-03 -0.133601712220E-03
 -0.137946106383E-03 -0.142431769383E-03 -0.147063294929E-03 -0.151845426105E-03 -0.156783060226E-03
 -0.161881253858E-03 -0.167145227993E-03 -0.172580373394E-03 -0.178192256120E-03 -0.183986623224E-03
 -0.189969408638E-03 -0.196146739250E-03 -0.202524941178E-03 -0.209110546250E-03 -0.215910298692E-03
 -0.222931162033E-03 -0.230180326241E-03 -0.237665215079E-03 -0.245393493715E-03 -0.253373076566E-03
 -0.261612135406E-03 -0.270119107732E-03 -0.278902705406E-03 -0.287971923579E-03 -0.297336049897E-03
 -0.307004674018E-03 -0.316987697427E-03 -0.327295343579E-03 -0.337938168370E-03 -0.348927070942E-03
 -0.360273304847E-03 -0.371988489574E-03 -0.384084622441E-03 -0.396574090887E-03 -0.409469685156E-03
 -0.422784611392E-03 -0.436532505165E-03 -0.450727445434E-03 -0.465383968965E-03 -0.480517085214E-03
 -0.496142291701E-03 -0.512275589876E-03 -0.528933501510E-03 -0.546133085605E-03 -0.563891955873E-03
 -0.582228298763E-03 -0.601160892091E-03 -0.620709124261E-03 -0.640893014127E-03 -0.661733231483E-03
 -0.683251118237E-03 -0.705468710255E-03 -0.728408759933E-03 -0.752094759488E-03 -0.776550965016E-03
 -0.801802421326E-03 -0.827874987585E-03 -0.854795363797E-03 -0.882591118136E-03 -0.911290715176E-03
 -0.940923545034E-03 -0.971519953459E-03 -0.100311127290E-02 -0.103572985460E-02 -0.106940910169E-02
 -0.110418350339E-02 -0.114008867036E-02 -0.117716137110E-02 -0.121543956961E-02 -0.125496246426E-02
 -0.129577052792E-02 -0.133790554937E-02 -0.138141067610E-02 -0.142633045844E-02 -0.147271089519E-02
 -0.152059948068E-02 -0.157004525339E-02 -0.162109884612E-02 -0.167381253785E-02 -0.172824030716E-02
 -0.178443788754E-02 -0.184246282438E-02 -0.190237453384E-02 -0.196423436366E-02 -0.202810565592E-02
 -0.209405381182E-02 -0.216214635858E-02 -0.223245301853E-02 -0.230504578037E-02 -0.237999897284E-02
 -0.245738934068E-02 -0.253729612312E-02 -0.261980113488E-02 -0.270498884979E-02 -0.279294648717E-02
 -0.288376410089E-02 -0.297753467144E-02 -0.307435420093E-02 -0.317432181112E-02 -0.327753984464E-02
 -0.338411396957E-02 -0.349415328724E-02 -0.360777044362E-02 -0.372508174428E-02 -0.384620727307E-02
 -0.397127101455E-02 -0.410040098048E-02 -0.423372934027E-02 -0.437139255574E-02 -0.451353152007E-02
 -0.466029170136E-02 -0.481182329072E-02 -0.496828135507E-02 -0.512982599495E-02 -0.529662250726E-02
 -0.546884155329E-02 -0.564665933207E-02 -0.583025775925E-02 -0.601982465172E-02 -0.621555391804E-02
 -0.641764575495E-02 -0.662630685013E-02 -0.684175059135E-02 -0.706419728222E-02 -0.729387436477E-02
 -0.753101664905E-02 -0.777586654986E-02 -0.802867433099E-02 -0.828969835706E-02 -0.855920535313E-02
 -0.883747067252E-02 -0.912477857280E-02 -0.942142250035E-02 -0.972770538366E-02 -0.100439399356E-01
 -0.103704489650E-01 -0.107075656976E-01 -0.110556341065E-01 -0.114150092531E-01 -0.117860576376E-01
 -0.121691575605E-01 -0.125646994942E-01 -0.129730864658E-01 -0.133947344511E-01 -0.138300727800E-01
 -0.142795445529E-01 -0.147436070699E-01 -0.152227322709E-01 -0.157174071890E-01 -0.162281344155E-01
 -0.167554325777E-01 -0.172998368294E-01 -0.178618993544E-01 -0.184421898827E-01 -0.190412962200E-01
 -0.196598247898E-01 -0.202984011888E-01 -0.209576707558E-01 -0.216382991527E-01 -0.223409729586E-01
 -0.230664002773E-01 -0.238153113556E-01 -0.245884592151E-01 -0.253866202947E-01 -0.262105951044E-01
 -0.270612088893E-01 -0.279393123040E-01 -0.288457820946E-01 -0.297815217894E-01 -0.307474623958E-01
 -0.317445631023E-01 -0.327738119840E-01 -0.338362267100E-01 -0.349328552502E-01 -0.360647765798E-01
 -0.372331013777E-01 -0.384389727174E-01 -0.396835667450E-01 -0.409680933429E-01 -0.422937967718E-01
 -0.436619562896E-01 -0.450738867392E-01 -0.465309391002E-01 -0.480345009974E-01 -0.495859971601E-01
 -0.511868898203E-01 -0.528386790452E-01 -0.545429029893E-01 -0.563011380572E-01 -0.581149989638E-01
 -0.599861386771E-01 -0.619162482280E-01 -0.639070563707E-01 -0.659603290728E-01 -0.680778688150E-01
 -0.702615136757E-01 -0.725131361759E-01 -0.748346418536E-01 -0.772279675364E-01 -0.796950792787E-01
 -0.822379699214E-01 -0.848586562341E-01 -0.875591755906E-01 -0.903415821257E-01 -0.932079423170E-01
 -0.961603299258E-01 -0.992008202301E-01 -0.102331483470E+00 -0.105554377424E+00 -0.108871539019E+00
 -0.112284974876E+00 -0.115796650675E+00 -0.119408479221E+00 -0.123122307073E+00 -0.126939899579E+00
 -0.130862924173E+00 -0.134892931739E+00 -0.139031335857E+00 -0.143279389708E+00 -0.147638160418E+00
 -0.152108500576E+00 -0.156691016662E+00 -0.161386034065E+00 -0.166193558385E+00 -0.171113232657E+00
 -0.176144290111E+00 -0.181285502058E+00 -0.186535120465E+00 -0.191890814735E+00 -0.197349602181E+00
 -0.202907771671E+00 -0.208560799852E+00 -0.214303259368E+00 -0.220128718437E+00 -0.226029631148E+00
 -0.231997217813E+00 -0.238021334704E+00 -0.244090332540E+00 -0.250190903067E+00 -0.256307913171E+00
 -0.262424226012E+00 -0.268520508774E+00 -0.274575026802E+00 -0.280563424081E+00 -0.286458490306E+00
 -0.292229915122E+00 -0.297844030590E+00 -0.303263543492E+00 -0.308447259770E+00 -0.313349804314E+00
 -0.317921340320E+00 -0.322107293749E+00 -0.325848089948E+00 -0.329078911309E+00 -0.331729486973E+00
 -0.333723928093E+00 -0.334980625015E+00 -0.335412225996E+00 -0.334925720719E+00 -0.333422655885E+00
 -0.330799514483E+00 -0.326948294892E+00 -0.321757330618E+00 -0.315112395928E+00 -0.306898146701E+00
 -0.296999948975E+00 -0.285306149438E+00 -0.271710841789E+00 -0.256117179644E+00 -0.238441279494E+00
 -0.218616744926E+00 -0.196599824754E+00 -0.172375191341E+00 -0.145962290152E+00 -0.117422166176E+00
 -0.868628939850E-01 -0.544882657877E-01 -0.205507065476E-01  0.146797318253E-01  0.509251077581E-01
  0.879031991508E-01  0.125331097938E+00  0.162928735989E+00  0.200422276192E+00  0.237547281440E+00
  0.274051550858E+00  0.309697496387E+00  0.344263936753E+00  0.377547225183E+00  0.409361700100E+00
  0.439539553569E+00  0.467930310912E+00  0.494400201285E+00  0.518831724657E+00  0.541123702895E+00
  0.561192032538E+00  0.578971226954E+00  0.594416582100E+00  0.607506310314E+00  0.618242224454E+00
  0.626646866105E+00  0.632755335774E+00  0.636602569259E+00  0.638210736470E+00  0.637583268841E+00
  0.634708611149E+00  0.629570843426E+00  0.622161679979E+00  0.612490502546E+00  0.600592071361E+00
  0.586532763518E+00  0.570415638541E+00  0.552383121846E+00  0.532616262600E+00  0.511329480531E+00
  0.488761728542E+00  0.465165807003E+00  0.440797732314E+00  0.415907719325E+00  0.390733422805E+00
  0.365495478418E+00  0.340395108291E+00  0.315613348712E+00  0.291311453341E+00  0.267632041415E+00
 ae wavefunction
 -0.145768944973E-02 -0.150073124025E-02 -0.154503248319E-02 -0.159062935297E-02 -0.163755901907E-02
 -0.168585967065E-02 -0.173557054166E-02 -0.178673193630E-02 -0.183938525499E-02 -0.189357302064E-02
 -0.194933890539E-02 -0.200672775775E-02 -0.206578562999E-02 -0.212655980601E-02 -0.218909882947E-02
 -0.225345253223E-02 -0.231967206309E-02 -0.238780991677E-02 -0.245791996311E-02 -0.253005747646E-02
 -0.260427916525E-02 -0.268064320162E-02 -0.275920925113E-02 -0.284003850253E-02 -0.292319369744E-02
 -0.300873915999E-02 -0.309674082624E-02 -0.318726627344E-02 -0.328038474901E-02 -0.337616719906E-02
 -0.347468629656E-02 -0.357601646892E-02 -0.368023392493E-02 -0.378741668097E-02 -0.389764458634E-02
 -0.401099934764E-02 -0.412756455204E-02 -0.424742568927E-02 -0.437067017226E-02 -0.449738735619E-02
 -0.462766855579E-02 -0.476160706081E-02 -0.489929814925E-02 -0.504083909839E-02 -0.518632919319E-02
 -0.533586973188E-02 -0.548956402861E-02 -0.564751741264E-02 -0.580983722397E-02 -0.597663280506E-02
 -0.614801548822E-02 -0.632409857842E-02 -0.650499733109E-02 -0.669082892449E-02 -0.688171242631E-02
 -0.707776875392E-02 -0.727912062789E-02 -0.748589251826E-02 -0.769821058295E-02 -0.791620259784E-02
 -0.813999787783E-02 -0.836972718827E-02 -0.860552264611E-02 -0.884751761004E-02 -0.909584655883E-02
 -0.935064495712E-02 -0.961204910785E-02 -0.988019599031E-02 -0.101552230831E-01 -0.104372681707E-01
 -0.107264691332E-01 -0.110229637173E-01 -0.113268892879E-01 -0.116383825596E-01 -0.119575793059E-01
 -0.122846140450E-01 -0.126196197017E-01 -0.129627272427E-01 -0.133140652854E-01 -0.136737596763E-01
 -0.140419330402E-01 -0.144187042963E-01 -0.148041881408E-01 -0.151984944929E-01 -0.156017279042E-01
 -0.160139869276E-01 -0.164353634452E-01 -0.168659419520E-01 -0.173057987942E-01 -0.177550013598E-01
 -0.182136072183E-01 -0.186816632087E-01 -0.191592044727E-01 -0.196462534305E-01 -0.201428186975E-01
 -0.206488939395E-01 -0.211644566630E-01 -0.216894669398E-01 -0.222238660623E-01 -0.227675751277E-01
 -0.233204935489E-01 -0.238824974895E-01 -0.244534382210E-01 -0.250331404009E-01 -0.256214002686E-01
 -0.262179837583E-01 -0.268226245271E-01 -0.274350218975E-01 -0.280548387131E-01 -0.286816991066E-01
 -0.293151861802E-01 -0.299548395995E-01 -0.306001530992E-01 -0.312505719053E-01 -0.319054900720E-01
 -0.325642477390E-01 -0.332261283107E-01 -0.338903555622E-01 -0.345560906773E-01 -0.352224292242E-01
 -0.358883980769E-01 -0.365529522914E-01 -0.372149719445E-01 -0.378732589501E-01 -0.385265338632E-01
 -0.391734326886E-01 -0.398125037098E-01 -0.404422043586E-01 -0.410608981453E-01 -0.416668516737E-01
 -0.422582317683E-01 -0.428331027399E-01 -0.433894238253E-01 -0.439250468329E-01 -0.444377140343E-01
 -0.449250563440E-01 -0.453845918311E-01 -0.458137246139E-01 -0.462097441904E-01 -0.465698252605E-01
 -0.468910281039E-01 -0.471702995779E-01 -0.474044748059E-01 -0.475902796318E-01 -0.477243339183E-01
 -0.478031557744E-01 -0.478231667990E-01 -0.477806984324E-01 -0.476719995129E-01 -0.474932451369E-01
 -0.472405469267E-01 -0.469099648098E-01 -0.464975204196E-01 -0.459992122245E-01 -0.454110324967E-01
 -0.447289862282E-01 -0.439491121023E-01 -0.430675056242E-01 -0.420803445099E-01 -0.409839164272E-01
 -0.397746491716E-01 -0.384491433528E-01 -0.370042076503E-01 -0.354368966843E-01 -0.337445515267E-01
 -0.319248428558E-01 -0.299758167338E-01 -0.278959429540E-01 -0.256841658730E-01 -0.233399576057E-01
 -0.208633734153E-01 -0.182551090854E-01 -0.155165600075E-01 -0.126498816604E-01 -0.965805109357E-02
 -0.654492896570E-02 -0.331532161706E-02  0.249574087272E-04  0.346902704663E-02  0.700888031090E-02
  0.106353285918E-01  0.143379494897E-01  0.181050391004E-01  0.219235697560E-01  0.257791543368E-01
  0.296560184022E-01  0.335369815311E-01  0.374034493986E-01  0.412354182273E-01  0.450114933240E-01
  0.487089234419E-01  0.523036526889E-01  0.557703916455E-01  0.590827092551E-01  0.622131469289E-01
  0.651333561724E-01  0.678142608896E-01  0.702262453653E-01  0.723393687262E-01  0.741236064523E-01
  0.755491192211E-01  0.765865490345E-01  0.772073421887E-01  0.773840982102E-01  0.770909433879E-01
  0.763039269835E-01  0.750014376063E-01  0.731646365843E-01  0.707779044764E-01  0.678292961341E-01
  0.643109989714E-01  0.602197883322E-01  0.555574730847E-01  0.503313238374E-01  0.445544754828E-01
  0.382462951535E-01  0.314327061524E-01  0.241464580037E-01  0.164273325206E-01  0.832227573561E-02
 -0.114554211693E-03 -0.882183247678E-02 -0.177312143080E-01 -0.267675897491E-01 -0.358494510140E-01
 -0.448893759886E-01 -0.537946310886E-01 -0.624678978686E-01 -0.708081297294E-01 -0.787115460753E-01
 -0.860727683852E-01 -0.927860948042E-01 -0.987468991823E-01 -0.103853133301E+00 -0.108006909894E+00
 -0.111116146006E+00 -0.113096246436E+00 -0.113871804129E+00 -0.113378290155E+00 -0.111563702695E+00
 -0.108390142963E+00 -0.103835285840E+00 -0.978937132813E-01 -0.905780787468E-01 -0.819200708841E-01
 -0.719711446288E-01 -0.608029881574E-01 -0.485076950597E-01 -0.351976131706E-01 -0.210048451217E-01
 -0.608038116568E-02  0.940714786386E-02  0.252731012283E-01  0.413188384990E-01  0.573340996384E-01
  0.730997415040E-01  0.883908079468E-01  0.102979877204E+00  0.116640552077E+00  0.129150852480E+00
  0.140296250531E+00  0.149872328547E+00  0.157687555915E+00  0.163566954303E+00  0.167356718472E+00
  0.168928733610E+00  0.168184018927E+00  0.165055114615E+00  0.159507829325E+00  0.151542560340E+00
  0.141195164872E+00  0.128537270525E+00  0.113675925000E+00  0.967525469680E-01  0.779412049670E-01
  0.574462915606E-01  0.354996749835E-01  0.123574102317E-01 -0.117039132662E-01 -0.363911149055E-01
 -0.613985865146E-01 -0.864126051882E-01 -0.111115721742E+00 -0.135191148638E+00 -0.158327070448E+00
 -0.180220803130E+00 -0.200582735901E+00 -0.219139994167E+00 -0.235639761967E+00 -0.249852178071E+00
 -0.261572690473E+00 -0.270623739962E+00 -0.276855719701E+00 -0.280147354782E+00 -0.280405884539E+00
 -0.277567499738E+00 -0.271598240744E+00 -0.262495146296E+00 -0.250287186808E+00 -0.235035590568E+00
 -0.216833416497E+00 -0.195804429612E+00 -0.172101402695E+00 -0.145903954527E+00 -0.117416002903E+00
 -0.868628939850E-01 -0.544882657877E-01 -0.205507065476E-01  0.146797318253E-01  0.509251077581E-01
  0.879031991508E-01  0.125331097938E+00  0.162928735989E+00  0.200422276192E+00  0.237547281440E+00
  0.274051550858E+00  0.309697496387E+00  0.344263936753E+00  0.377547225183E+00  0.409361700100E+00
  0.439539553569E+00  0.467930310912E+00  0.494400201285E+00  0.518831724657E+00  0.541123702895E+00
  0.561192032538E+00  0.578971226954E+00  0.594416582100E+00  0.607506310314E+00  0.618242224454E+00
  0.626646866105E+00  0.632755335774E+00  0.636602569259E+00  0.638210736470E+00  0.637583268841E+00
  0.634708611149E+00  0.629570843426E+00  0.622161679979E+00  0.612490502546E+00  0.600592071361E+00
  0.586532763518E+00  0.570415638541E+00  0.552383121846E+00  0.532616262600E+00  0.511329480531E+00
  0.488761728542E+00  0.465165807003E+00  0.440797732314E+00  0.415907719325E+00  0.390733422805E+00
  0.365495478418E+00  0.340395108291E+00  0.315613348712E+00  0.291311453341E+00  0.267632041415E+00
 pseudo wavefunction
  0.147328758398E-07  0.157066069397E-07  0.167446942631E-07  0.178513912670E-07  0.190312325298E-07
  0.202890523308E-07  0.216300044585E-07  0.230595833277E-07  0.245836464921E-07  0.262084386452E-07
  0.279406172074E-07  0.297872796036E-07  0.317559923449E-07  0.338548220309E-07  0.360923684023E-07
  0.384777995772E-07  0.410208896164E-07  0.437320585720E-07  0.466224151820E-07  0.497038023876E-07
  0.529888458584E-07  0.564910057245E-07  0.602246317282E-07  0.642050220206E-07  0.684484858441E-07
  0.729724103579E-07  0.777953318799E-07  0.829370118378E-07  0.884185177387E-07  0.942623094920E-07
  0.100492331436E-06  0.107134110446E-06  0.114214860532E-06  0.121763594340E-06  0.129811242032E-06
  0.138390778019E-06  0.147537356066E-06  0.157288453337E-06  0.167684023949E-06  0.178766662682E-06
  0.190581779505E-06  0.203177785642E-06  0.216606291924E-06  0.230922320270E-06  0.246184529124E-06
  0.262455453804E-06  0.279801762736E-06  0.298294530621E-06  0.318009529650E-06  0.339027539978E-06
  0.361434680710E-06  0.385322762762E-06  0.410789665051E-06  0.437939735537E-06  0.466884218780E-06
  0.497741711752E-06  0.530638649773E-06  0.565709824565E-06  0.603098936547E-06  0.642959183625E-06
  0.685453888912E-06  0.730757169913E-06  0.779054651958E-06  0.830544228775E-06  0.885436873339E-06
  0.943957502299E-06  0.100634589755E-05  0.107285768872E-05  0.114376540054E-05  0.121935956953E-05
  0.129994993439E-05  0.138586670513E-05  0.147746191606E-05  0.157511086820E-05  0.167921366699E-05
  0.179019686171E-05  0.190851519318E-05  0.203465345697E-05  0.216912848980E-05  0.231249128718E-05
  0.246532926103E-05  0.262826864647E-05  0.280197706774E-05  0.298716627366E-05  0.318459505388E-05
  0.339507234787E-05  0.361946055940E-05  0.385867909004E-05  0.411370810624E-05  0.438559255532E-05
  0.467544644692E-05  0.498445741737E-05  0.531389159575E-05  0.566509879154E-05  0.603951802508E-05
  0.643868342356E-05  0.686423050669E-05  0.731790288771E-05  0.780155941733E-05  0.831718179974E-05
  0.886688271196E-05  0.945291445979E-05  0.100776782058E-04  0.107437338070E-04  0.114538103031E-04
  0.122108170972E-04  0.130178558761E-04  0.138782333176E-04  0.147954746381E-04  0.157733380356E-04
  0.168158300863E-04  0.179272221595E-04  0.191120679166E-04  0.203752219671E-04  0.217218597568E-04
  0.231574987703E-04  0.246880211347E-04  0.263196977168E-04  0.280592138127E-04  0.299136965341E-04
  0.318907440055E-04  0.339984564890E-04  0.362454695667E-04  0.386409895147E-04  0.411948310149E-04
  0.439174573576E-04  0.468200233003E-04  0.499144207584E-04  0.532133275135E-04  0.567302591397E-04
  0.604796243599E-04  0.644767840590E-04  0.687381141946E-04  0.732810728627E-04  0.781242717939E-04
  0.832875525701E-04  0.887920678754E-04  0.946603681128E-04  0.100916493739E-03  0.107586073700E-03
  0.114696430357E-03  0.122276691351E-03  0.130357908848E-03  0.138973186645E-03  0.148157815688E-03
  0.157949418509E-03  0.168388103218E-03  0.179516627636E-03  0.191380574274E-03  0.204028536844E-03
  0.217512319083E-03  0.231887146680E-03  0.247211893188E-03  0.263549320829E-03  0.280966337170E-03
  0.299534268729E-03  0.319329152599E-03  0.340432047299E-03  0.362929364100E-03  0.386913220169E-03
  0.412481814975E-03  0.439739831470E-03  0.468798863677E-03  0.499777872407E-03  0.532803670963E-03
  0.568011442771E-03  0.605545293045E-03  0.645558836700E-03  0.688215824885E-03  0.733690812651E-03
  0.782169870441E-03  0.833851342255E-03  0.888946653517E-03  0.947681171900E-03  0.101029512451E-02
  0.107704457513E-02  0.114820246536E-02  0.122405972384E-02  0.130492644790E-02  0.139113316237E-02
  0.148303216045E-02  0.158099893194E-02  0.168543368448E-02  0.179676296365E-02  0.191544137833E-02
  0.204195343801E-02  0.217681550912E-02  0.232057789799E-02  0.247382706832E-02  0.263718800184E-02
  0.281132671090E-02  0.299695291268E-02  0.319482287498E-02  0.340574244436E-02  0.363057026765E-02
  0.387022121899E-02  0.412567004482E-02  0.439795523998E-02  0.468818316915E-02  0.499753244797E-02
  0.532725859970E-02  0.567869900338E-02  0.605327815076E-02  0.645251322984E-02  0.687802005382E-02
  0.733151935505E-02  0.781484346451E-02  0.832994339814E-02  0.887889637225E-02  0.946391377108E-02
  0.100873495903E-01  0.107517093810E-01  0.114596597202E-01  0.122140382323E-01  0.130178641897E-01
  0.138743497189E-01  0.147869116383E-01  0.157591839570E-01  0.167950310599E-01  0.178985616064E-01
  0.190741431704E-01  0.203264176435E-01  0.216603174283E-01  0.230810824403E-01  0.245942779403E-01
  0.262058132102E-01  0.279219610857E-01  0.297493783522E-01  0.316951270031E-01  0.337666963566E-01
  0.359720260123E-01  0.383195296250E-01  0.408181194568E-01  0.434772316551E-01  0.463068521909E-01
  0.493175433676E-01  0.525204707925E-01  0.559274306773E-01  0.595508773019E-01  0.634039504460E-01
  0.675005025532E-01  0.718551253488E-01  0.764831755833E-01  0.814007995188E-01  0.866249557122E-01
  0.921734355773E-01  0.980648811300E-01  0.104318799232E+00  0.110955571549E+00  0.117996459327E+00
  0.125463601976E+00  0.133380008306E+00  0.141769539124E+00  0.150656879729E+00  0.160067500676E+00
  0.170027604984E+00  0.180564059770E+00  0.191704310062E+00  0.203476272323E+00  0.215908204994E+00
  0.229028553082E+00  0.242865763621E+00  0.257448068537E+00  0.272803231261E+00  0.288958253167E+00
  0.305939035767E+00  0.323769994408E+00  0.342473619160E+00  0.362069978568E+00  0.382576162027E+00
  0.404005656802E+00  0.426367656099E+00  0.449666295233E+00  0.473899813790E+00  0.499059642899E+00
  0.525129418280E+00  0.552083921737E+00  0.579887956275E+00  0.608495163125E+00  0.637846792715E+00
  0.667870446106E+00  0.698478808733E+00  0.729568404399E+00  0.761018404503E+00  0.792689535401E+00
  0.824423135428E+00  0.856040422535E+00  0.887342043266E+00  0.918107983689E+00  0.948097932397E+00
  0.977052194005E+00  0.100469325790E+01  0.103072813003E+01  0.105485153372E+01  0.107675007736E+01
  0.109610746936E+01  0.111261083257E+01  0.112595812756E+01  0.113586663479E+01  0.114208236553E+01
  0.114439016991E+01  0.114262418352E+01  0.113667810318E+01  0.112651460891E+01  0.111217305791E+01
  0.109377437767E+01  0.107152189450E+01  0.104569667444E+01  0.101664585762E+01  0.984762476810E+00
  0.950455419705E+00  0.914108583871E+00  0.876028952458E+00  0.836382231999E+00  0.795243835165E+00
  0.752955081834E+00  0.709935257595E+00  0.666584216750E+00  0.623277304438E+00  0.580360990335E+00
  0.538149450567E+00  0.496922277535E+00  0.456923392524E+00  0.418361112774E+00  0.381409213994E+00
  0.346208753980E+00  0.312870377209E+00  0.281476774388E+00  0.252084901065E+00  0.224727508351E+00
  0.199413662711E+00  0.176128423803E+00  0.154832642106E+00  0.135464313933E+00  0.117942306374E+00
  0.102171752445E+00  0.880494421761E-01  0.754679703942E-01  0.643184694444E-01  0.544923722131E-01
  0.458826500438E-01  0.383847404472E-01  0.318972201320E-01  0.263222600754E-01  0.215659471344E-01
  0.175385905565E-01  0.141550927518E-01  0.113353932148E-01  0.900493219650E-02  0.709506006490E-02
  0.554332975756E-02  0.429363648339E-02  0.329619562683E-02  0.250737002889E-02  0.188937021569E-02
 ae wavefunction
 -0.162056780903E-04 -0.171309638584E-04 -0.181067848862E-04 -0.191360367045E-04 -0.202217752624E-04
 -0.213672262328E-04 -0.225757948463E-04 -0.238510762841E-04 -0.251968666641E-04 -0.266171746545E-04
 -0.281162337532E-04 -0.296985152710E-04 -0.313687420631E-04 -0.331319030503E-04 -0.349932685798E-04
 -0.369584066716E-04 -0.390332002114E-04 -0.412238651299E-04 -0.435369696525E-04 -0.459794546541E-04
 -0.485586552078E-04 -0.512823233853E-04 -0.541586523915E-04 -0.571963021023E-04 -0.604044260999E-04
 -0.637927002888E-04 -0.673713531845E-04 -0.711511979775E-04 -0.751436664764E-04 -0.793608450397E-04
 -0.838155126183E-04 -0.885211810249E-04 -0.934921375722E-04 -0.987434902098E-04 -0.104291215315E-03
 -0.110152208289E-03 -0.116344337119E-03 -0.122886499098E-03 -0.129798680862E-03 -0.137102021964E-03
 -0.144818882168E-03 -0.152972912709E-03 -0.161589131716E-03 -0.170694004073E-03 -0.180315525955E-03
 -0.190483314320E-03 -0.201228701638E-03 -0.212584836164E-03 -0.224586788078E-03 -0.237271661818E-03
 -0.250678714968E-03 -0.264849484081E-03 -0.279827917820E-03 -0.295660517839E-03 -0.312396487843E-03
 -0.330087891278E-03 -0.348789818153E-03 -0.368560561479E-03 -0.389461803881E-03 -0.411558814931E-03
 -0.434920659796E-03 -0.459620419819E-03 -0.485735425680E-03 -0.513347503812E-03 -0.542543236795E-03
 -0.573414238447E-03 -0.606057444411E-03 -0.640575419041E-03 -0.677076679423E-03 -0.715676037428E-03
 -0.756494960701E-03 -0.799661953552E-03 -0.845312958728E-03 -0.893591781103E-03 -0.944650534358E-03
 -0.998650111731E-03 -0.105576068201E-02 -0.111616221191E-02 -0.118004501607E-02 -0.124761033591E-02
 -0.131907094860E-02 -0.139465180748E-02 -0.147459071525E-02 -0.155913903127E-02 -0.164856241436E-02
 -0.174314160245E-02 -0.184317323064E-02 -0.194897068877E-02 -0.206086502018E-02 -0.217920586296E-02
 -0.230436243497E-02 -0.243672456406E-02 -0.257670376474E-02 -0.272473436255E-02 -0.288127466726E-02
 -0.304680819601E-02 -0.322184494727E-02 -0.340692272659E-02 -0.360260852463E-02 -0.380949994818E-02
 -0.402822670420E-02 -0.425945213722E-02 -0.450387481967E-02 -0.476223019460E-02 -0.503529227007E-02
 -0.532387536368E-02 -0.562883589571E-02 -0.595107422839E-02 -0.629153654876E-02 -0.665121679129E-02
 -0.703115859652E-02 -0.743245730043E-02 -0.785626194891E-02 -0.830377733058E-02 -0.877626602013E-02
 -0.927505042317E-02 -0.980151481254E-02 -0.103571073443E-01 -0.109433420406E-01 -0.115618007240E-01
 -0.122141348884E-01 -0.129020674853E-01 -0.136273946086E-01 -0.143919870512E-01 -0.151977917119E-01
 -0.160468328219E-01 -0.169412129624E-01 -0.178831138381E-01 -0.188747967717E-01 -0.199186028768E-01
 -0.210169528688E-01 -0.221723464624E-01 -0.233873613081E-01 -0.246646514091E-01 -0.260069449594E-01
 -0.274170415400E-01 -0.288978086004E-01 -0.304521771549E-01 -0.320831366115E-01 -0.337937286503E-01
 -0.355870400611E-01 -0.374661944461E-01 -0.394343426863E-01 -0.414946520678E-01 -0.436502939569E-01
 -0.459044299089E-01 -0.482601960920E-01 -0.507206859032E-01 -0.532889306481E-01 -0.559678781568E-01
 -0.587603692032E-01 -0.616691115969E-01 -0.646966518142E-01 -0.678453440395E-01 -0.711173164888E-01
 -0.745144348941E-01 -0.780382630345E-01 -0.816900202083E-01 -0.854705355543E-01 -0.893801991440E-01
 -0.934189097888E-01 -0.975860195231E-01 -0.101880274757E+00 -0.106299754119E+00 -0.110841803048E+00
 -0.115502965234E+00 -0.120278911056E+00 -0.125164363215E+00 -0.130153019832E+00 -0.135237475324E+00
 -0.140409139486E+00 -0.145658155225E+00 -0.150973315559E+00 -0.156341980491E+00 -0.161749994548E+00
 -0.167181605788E+00 -0.172619387232E+00 -0.178044161702E+00 -0.183434931168E+00 -0.188768811779E+00
 -0.194020975856E+00 -0.199164602273E+00 -0.204170836834E+00 -0.209008764525E+00 -0.213645395806E+00
 -0.218045669411E+00 -0.222172474442E+00 -0.225986694684E+00 -0.229447278204E+00 -0.232511335227E+00
 -0.235134267199E+00 -0.237269929706E+00 -0.238870831705E+00 -0.239888373245E+00 -0.240273123601E+00
 -0.239975141531E+00 -0.238944339163E+00 -0.237130890802E+00 -0.234485687656E+00 -0.230960839078E+00
 -0.226510220447E+00 -0.221090067178E+00 -0.214659613694E+00 -0.207181775343E+00 -0.198623870390E+00
 -0.188958378169E+00 -0.178163728397E+00 -0.166225115436E+00 -0.153135330004E+00 -0.138895599477E+00
 -0.123516426530E+00 -0.107018414426E+00 -0.894330658882E-01 -0.708035410803E-01 -0.511853590125E-01
 -0.306470254971E-01 -0.927056985015E-02  0.128480282148E-01  0.355985404437E-01  0.588563395134E-01
  0.824824141777E-01  0.106323566393E+00  0.130212803920E+00  0.153969938428E+00  0.177402396029E+00
  0.200306246241E+00  0.222467458021E+00  0.243663398004E+00  0.263664593697E+00  0.282236787563E+00
  0.299143298138E+00  0.314147680745E+00  0.327016651275E+00  0.337523221755E+00  0.345450000494E+00
  0.350592620663E+00  0.352763264521E+00  0.351794243359E+00  0.347541582348E+00  0.339888551475E+00
  0.328749080839E+00  0.314070998758E+00  0.295839031848E+00  0.274077505901E+00  0.248852684639E+00
  0.220274681010E+00  0.188498873363E+00  0.153726757775E+00  0.116206169035E+00  0.762308075875E-01
  0.341390190481E-01 -0.968821339655E-02 -0.548300869889E-01 -0.100829616338E+00 -0.147198089622E+00
 -0.193420342014E+00 -0.238960827629E+00 -0.283270387789E+00 -0.325793398865E+00 -0.365974672276E+00
 -0.403265386178E+00 -0.437127970076E+00 -0.467041361143E+00 -0.492508980007E+00 -0.513069889316E+00
 -0.528310247062E+00 -0.537872197701E+00 -0.541460162726E+00 -0.538845763021E+00 -0.529872058879E+00
 -0.514457100641E+00 -0.492596470579E+00 -0.464364483032E+00 -0.429913860340E+00 -0.389473884072E+00
 -0.343347143697E+00 -0.291905055325E+00 -0.235582325249E+00 -0.174870518575E+00 -0.110310876125E+00
 -0.424865132409E-01  0.279858680755E-01  0.100464617397E+00  0.174291978249E+00  0.248802980543E+00
  0.323334227030E+00  0.397232427041E+00  0.469862537654E+00  0.540615366067E+00  0.608914417595E+00
  0.674221658720E+00  0.736041753013E+00  0.793924427575E+00  0.847465112183E+00  0.896304767681E+00
  0.940130317975E+00  0.978676713065E+00  0.101173050817E+01  0.103913384595E+01  0.106078760906E+01
  0.107665306966E+01  0.108675198126E+01  0.109116535154E+01  0.109003115744E+01  0.108354117699E+01
  0.107193705364E+01  0.105550568858E+01  0.103457407523E+01  0.100950370028E+01  0.980684645974E+00
  0.948529516277E+00  0.913467281990E+00  0.875937112055E+00  0.836382231999E+00  0.795243835165E+00
  0.752955081834E+00  0.709935257595E+00  0.666584216750E+00  0.623277304438E+00  0.580360990335E+00
  0.538149450567E+00  0.496922277535E+00  0.456923392524E+00  0.418361112774E+00  0.381409213994E+00
  0.346208753980E+00  0.312870377209E+00  0.281476774388E+00  0.252084901065E+00  0.224727508351E+00
  0.199413662711E+00  0.176128423803E+00  0.154832642106E+00  0.135464313933E+00  0.117942306374E+00
  0.102171752445E+00  0.880494421761E-01  0.754679703942E-01  0.643184694444E-01  0.544923722131E-01
  0.458826500438E-01  0.383847404472E-01  0.318972201320E-01  0.263222600754E-01  0.215659471344E-01
  0.175385905565E-01  0.141550927518E-01  0.113353932148E-01  0.900493219650E-02  0.709506006490E-02
  0.554332975756E-02  0.429363648339E-02  0.329619562683E-02  0.250737002889E-02  0.188937021569E-02
 pseudo wavefunction
 -0.232723789960E-07 -0.248105063396E-07 -0.264502922078E-07 -0.281984554560E-07 -0.300621590051E-07
 -0.320490391905E-07 -0.341672370514E-07 -0.364254316876E-07 -0.388328758215E-07 -0.413994337100E-07
 -0.441356215625E-07 -0.470526506297E-07 -0.501624731408E-07 -0.534778312763E-07 -0.570123093779E-07
 -0.607803896090E-07 -0.647975112940E-07 -0.690801341787E-07 -0.736458058733E-07 -0.785132337511E-07
 -0.837023616008E-07 -0.892344513434E-07 -0.951321701513E-07 -0.101419683324E-06 -0.108122753304E-06
 -0.115268845234E-06 -0.122887239495E-06 -0.131009151677E-06 -0.139667860483E-06 -0.148898844085E-06
 -0.158739925492E-06 -0.169231427524E-06 -0.180416338034E-06 -0.192340486044E-06 -0.205052729525E-06
 -0.218605155586E-06 -0.233053293899E-06 -0.248456344220E-06 -0.264877418961E-06 -0.282383801781E-06
 -0.301047223274E-06 -0.320944154880E-06 -0.342156122216E-06 -0.364770039119E-06 -0.388878563768E-06
 -0.414580478337E-06 -0.441981093745E-06 -0.471192681160E-06 -0.502334932011E-06 -0.535535448415E-06
 -0.570930266009E-06 -0.608664411345E-06 -0.648892496115E-06 -0.691779350655E-06 -0.737500699323E-06
 -0.786243880502E-06 -0.838208614202E-06 -0.893607820387E-06 -0.952668491388E-06 -0.101563262198E-05
 -0.108275820091E-05 -0.115432026802E-05 -0.123061204111E-05 -0.131194611744E-05 -0.139865575450E-05
 -0.149109623553E-05 -0.158964632521E-05 -0.169470982162E-05 -0.180671721074E-05 -0.192612743030E-05
 -0.205342975023E-05 -0.218914577735E-05 -0.233383159259E-05 -0.248808002945E-05 -0.265252310302E-05
 -0.282783459960E-05 -0.301473283739E-05 -0.321398360972E-05 -0.342640332272E-05 -0.365286234042E-05
 -0.389428855093E-05 -0.415167116823E-05 -0.442606478536E-05 -0.471859369535E-05 -0.503045649781E-05
 -0.536293100996E-05 -0.571737950215E-05 -0.609525427952E-05 -0.649810363245E-05 -0.692757818032E-05
 -0.738543763451E-05 -0.787355800834E-05 -0.839393930357E-05 -0.894871370482E-05 -0.954015431555E-05
 -0.101706844715E-04 -0.108428876693E-04 -0.115595181519E-04 -0.123235121927E-04 -0.131380001262E-04
 -0.140063191728E-04 -0.149320271127E-04 -0.159189168612E-04 -0.169710320097E-04 -0.180926833913E-04
 -0.192884667434E-04 -0.205632815354E-04 -0.219223510425E-04 -0.233712437444E-04 -0.249158961392E-04
 -0.265626370644E-04 -0.283182136249E-04 -0.301898188346E-04 -0.321851210845E-04 -0.343122955577E-04
 -0.365800577207E-04 -0.389976990270E-04 -0.415751249802E-04 -0.443228957123E-04 -0.472522692423E-04
 -0.503752475940E-04 -0.537046259597E-04 -0.572540451128E-04 -0.610380472826E-04 -0.650721357210E-04
 -0.693728382035E-04 -0.739577747261E-04 -0.788457296734E-04 -0.840567287538E-04 -0.896121210175E-04
 -0.955346662909E-04 -0.101848628386E-03 -0.108579874467E-03 -0.115755980977E-03 -0.123406346564E-03
 -0.131562312458E-03 -0.140257290803E-03 -0.149526901460E-03 -0.159409117841E-03 -0.169944422371E-03
 -0.181175972218E-03 -0.193149775952E-03 -0.205914881876E-03 -0.219523578780E-03 -0.234031609939E-03
 -0.249498401246E-03 -0.265987304378E-03 -0.283565856019E-03 -0.302306054175E-03 -0.322284652713E-03
 -0.343583475322E-03 -0.366289750184E-03 -0.390496466690E-03 -0.416302755692E-03 -0.443814294790E-03
 -0.473143740338E-03 -0.504411187905E-03 -0.537744663061E-03 -0.573280644476E-03 -0.611164621460E-03
 -0.651551688189E-03 -0.694607177035E-03 -0.740507333540E-03 -0.789440035781E-03 -0.841605561012E-03
 -0.897217402683E-03 -0.956503141111E-03 -0.101970537132E-02 -0.108708269177E-02 -0.115891075793E-02
 -0.123548340491E-02 -0.131711384368E-02 -0.140413593560E-02 -0.149690555037E-02 -0.159580201278E-02
 -0.170122964401E-02 -0.181361940360E-02 -0.193343063854E-02 -0.206115294644E-02 -0.219730815999E-02
 -0.234245246059E-02 -0.249717862944E-02 -0.266211844463E-02 -0.283794523390E-02 -0.302537659255E-02
 -0.322517727730E-02 -0.343816228696E-02 -0.366520014182E-02 -0.390721637409E-02 -0.416519724275E-02
 -0.444019368656E-02 -0.473332553014E-02 -0.504578595871E-02 -0.537884627780E-02 -0.573386097566E-02
 -0.611227310633E-02 -0.651562001299E-02 -0.694553941189E-02 -0.740377585819E-02 -0.789218761631E-02
 -0.841275395844E-02 -0.896758291591E-02 -0.955891950943E-02 -0.101891544852E-01 -0.108608335855E-01
 -0.115766673825E-01 -0.123395417070E-01 -0.131525287027E-01 -0.140188985399E-01 -0.149421318218E-01
 -0.159259327181E-01 -0.169742428624E-01 -0.180912560489E-01 -0.192814337655E-01 -0.205495216006E-01
 -0.219005665605E-01 -0.233399353345E-01 -0.248733335440E-01 -0.265068260104E-01 -0.282468580759E-01
 -0.301002780072E-01 -0.320743605130E-01 -0.341768313956E-01 -0.364158933612E-01 -0.388002529981E-01
 -0.413391489320E-01 -0.440423811556E-01 -0.469203415182E-01 -0.499840453522E-01 -0.532451641943E-01
 -0.567160595457E-01 -0.604098175915E-01 -0.643402847802E-01 -0.685221041325E-01 -0.729707521199E-01
 -0.777025759158E-01 -0.827348307802E-01 -0.880857172904E-01 -0.937744180776E-01 -0.998211336632E-01
 -0.106247116922E+00 -0.113074705613E+00 -0.120327352345E+00 -0.128029651207E+00 -0.136207360222E+00
 -0.144887418635E+00 -0.154097957878E+00 -0.163868304956E+00 -0.174228976757E+00 -0.185211663639E+00
 -0.196849200418E+00 -0.209175522643E+00 -0.222225605788E+00 -0.236035384732E+00 -0.250641650578E+00
 -0.266081921553E+00 -0.282394284390E+00 -0.299617202245E+00 -0.317789284819E+00 -0.336949015995E+00
 -0.357134433885E+00 -0.378382757857E+00 -0.400729956700E+00 -0.424210251797E+00 -0.448855548879E+00
 -0.474694791729E+00 -0.501753231090E+00 -0.530051602066E+00 -0.559605203473E+00 -0.590422873004E+00
 -0.622505852746E+00 -0.655846540552E+00 -0.690427124199E+00 -0.726218097059E+00 -0.763176656493E+00
 -0.801244989157E+00 -0.840348451282E+00 -0.880393656566E+00 -0.921266489932E+00 -0.962830071949E+00
 -0.100492270640E+01 -0.104735585228E+01 -0.108991217127E+01 -0.113234371295E+01 -0.117437031136E+01
 -0.121567827937E+01 -0.125591949974E+01 -0.129471102386E+01 -0.133163530059E+01 -0.136624116611E+01
 -0.139804573132E+01 -0.142653730347E+01 -0.145117947183E+01 -0.147141647140E+01 -0.148667991092E+01
 -0.149639690980E+01 -0.149999963052E+01 -0.149693611652E+01 -0.148668224960E+01 -0.146875452598E+01
 -0.144272321825E+01 -0.140822534778E+01 -0.136497674846E+01 -0.131278237182E+01 -0.125154388830E+01
 -0.118126360719E+01 -0.110204380415E+01 -0.101408075298E+01 -0.917653154330E+00 -0.813105283086E+00
 -0.700826078869E+00 -0.581226596788E+00 -0.454719703034E+00 -0.321707567934E+00 -0.182621583613E+00
 -0.380398767217E-01  0.111441182842E+00  0.265256295348E+00  0.000000000000E+00  0.000000000000E+00
  0.000000000000E+00  0.000000000000E+00  0.000000000000E+00  0.000000000000E+00  0.000000000000E+00
  0.000000000000E+00  0.000000000000E+00  0.000000000000E+00  0.000000000000E+00  0.000000000000E+00
  0.000000000000E+00  0.000000000000E+00  0.000000000000E+00  0.000000000000E+00  0.000000000000E+00
  0.000000000000E+00  0.000000000000E+00  0.000000000000E+00  0.000000000000E+00  0.000000000000E+00
  0.000000000000E+00  0.000000000000E+00  0.000000000000E+00  0.000000000000E+00  0.000000000000E+00
  0.000000000000E+00  0.000000000000E+00  0.000000000000E+00  0.000000000000E+00  0.000000000000E+00
  0.000000000000E+00  0.000000000000E+00  0.000000000000E+00  0.000000000000E+00  0.000000000000E+00
 ae wavefunction
  0.228068065400E-04  0.241089933413E-04  0.254823001547E-04  0.269308019618E-04  0.284587995062E-04
  0.300708323898E-04  0.317716929122E-04  0.335664406970E-04  0.354604181534E-04  0.374592668196E-04
  0.395689446445E-04  0.417957442596E-04  0.441463123033E-04  0.466276698577E-04  0.492472340656E-04
  0.520128409958E-04  0.549327698379E-04  0.580157684875E-04  0.612710806371E-04  0.647084744215E-04
  0.683382727445E-04  0.721713853664E-04  0.762193428697E-04  0.804943325995E-04  0.850092367105E-04
  0.897776724401E-04  0.948140347343E-04  0.100133541373E-03  0.105752280737E-03  0.111687262381E-03
  0.117956470566E-03  0.124578920938E-03  0.131574720527E-03  0.138965131279E-03  0.146772637304E-03
  0.155021016086E-03  0.163735413868E-03  0.172942425465E-03  0.182670178767E-03  0.192948424198E-03
  0.203808629433E-03  0.215284079674E-03  0.227409983803E-03  0.240223586768E-03  0.253764288559E-03
  0.268073770143E-03  0.283196126790E-03  0.299178009188E-03  0.316068772810E-03  0.333920636013E-03
  0.352788847350E-03  0.372731862642E-03  0.393811532354E-03  0.416093299862E-03  0.439646411226E-03
  0.464544137120E-03  0.490864007596E-03  0.518688060400E-03  0.548103103593E-03  0.579200993262E-03
  0.612078927161E-03  0.646839755138E-03  0.683592307272E-03  0.722451740660E-03  0.763539905875E-03
  0.806985734110E-03  0.852925646134E-03  0.901503984174E-03  0.952873467924E-03  0.100719567592E-02
  0.106464155357E-02  0.112539194921E-02  0.118963817948E-02  0.125758262565E-02  0.132943936221E-02
  0.140543481937E-02  0.148580848109E-02  0.157081362022E-02  0.166071807253E-02  0.175580505135E-02
  0.185637400458E-02  0.196274151597E-02  0.207524225247E-02  0.219422995968E-02  0.232007850717E-02
  0.245318298571E-02  0.259396085850E-02  0.274285316806E-02  0.290032580108E-02  0.306687081299E-02
  0.324300781422E-02  0.342928542003E-02  0.362628276569E-02  0.383461108879E-02  0.405491538032E-02
  0.428787610591E-02  0.453421099874E-02  0.479467692517E-02  0.507007182405E-02  0.536123672052E-02
  0.566905781452E-02  0.599446864427E-02  0.633845232425E-02  0.670204385697E-02  0.708633251739E-02
  0.749246430785E-02  0.792164448144E-02  0.837514013030E-02  0.885428283514E-02  0.936047137078E-02
  0.989517446233E-02  0.104599335845E-01  0.110563657964E-01  0.116861666018E-01  0.123511128246E-01
  0.130530654859E-01  0.137939726692E-01  0.145758723571E-01  0.154008952211E-01  0.162712673432E-01
  0.171893128473E-01  0.181574564136E-01  0.191782256469E-01  0.202542532675E-01  0.213882790889E-01
  0.225831517428E-01  0.238418301095E-01  0.251673844051E-01  0.265629968742E-01  0.280319620327E-01
  0.295776863974E-01  0.312036876371E-01  0.329135930712E-01  0.347111374394E-01  0.366001598554E-01
  0.385845998561E-01  0.406684924462E-01  0.428559620361E-01  0.451512151582E-01  0.475585318464E-01
  0.500822555492E-01  0.527267814446E-01  0.554965430154E-01  0.583959967370E-01  0.614296047214E-01
  0.646018151576E-01  0.679170403783E-01  0.713796323810E-01  0.749938556237E-01  0.787638569142E-01
  0.826936322071E-01  0.867869901230E-01  0.910475120032E-01  0.954785083178E-01  0.100082971247E+00
  0.104863523266E+00  0.109822361568E+00  0.114961198184E+00  0.120281195662E+00  0.125782898204E+00
  0.131466158170E+00  0.137330057911E+00  0.143372826903E+00  0.149591754225E+00  0.155983096456E+00
  0.162541981140E+00  0.169262306014E+00  0.176136634296E+00  0.183156086390E+00  0.190310228481E+00
  0.197586958574E+00  0.204972390676E+00  0.212450737896E+00  0.220004195412E+00  0.227612824344E+00
  0.235254437716E+00  0.242904489819E+00  0.250535970383E+00  0.258119305100E+00  0.265622264156E+00
  0.273009880570E+00  0.280244380353E+00  0.287285126761E+00  0.294088581281E+00  0.300608284389E+00
  0.306794859598E+00  0.312596044678E+00  0.317956754198E+00  0.322819177704E+00  0.327122917751E+00
  0.330805171884E+00  0.333800962350E+00  0.336043416990E+00  0.337464104390E+00  0.337993426018E+00
  0.337561067746E+00  0.336096512904E+00  0.333529618692E+00  0.329791257348E+00  0.324814022947E+00
  0.318533003999E+00  0.310886621151E+00  0.301817528325E+00  0.291273574514E+00  0.279208822136E+00
  0.265584616488E+00  0.250370699233E+00  0.233546357172E+00  0.215101595736E+00  0.195038324699E+00
  0.173371541672E+00  0.150130496876E+00  0.125359820747E+00  0.991205939799E-01  0.714913378199E-01
  0.425689008161E-01  0.124692168497E-01 -0.186720917677E-01 -0.506992929198E-01 -0.834363317196E-01
 -0.116686851525E+00 -0.150234472052E+00 -0.183843343762E+00 -0.217258992831E+00 -0.250209466678E+00
 -0.282406788732E+00 -0.313548734886E+00 -0.343320953237E+00 -0.371399459412E+00 -0.397453544263E+00
 -0.421149116852E+00 -0.442152472384E+00 -0.460134433776E+00 -0.474774794799E+00 -0.485766998406E+00
 -0.492822999457E+00 -0.495678265622E+00 -0.494096860138E+00 -0.487876534633E+00 -0.476853748876E+00
 -0.460908530087E+00 -0.439969084532E+00 -0.414016074962E+00 -0.383086476770E+00 -0.347276923066E+00
 -0.306746445257E+00 -0.261718512241E+00 -0.212482269603E+00 -0.159392881795E+00 -0.102870886929E+00
 -0.434004867932E-01  0.184732860330E-01  0.821485590919E-01  0.146971783439E+00  0.212244072500E+00
  0.277228715915E+00  0.341159843745E+00  0.403252097175E+00  0.462710857683E+00  0.518742149193E+00
  0.570561202563E+00  0.617399586490E+00  0.658512922763E+00  0.693192493999E+00  0.720781366292E+00
  0.740690927322E+00  0.752413817542E+00  0.755533220675E+00  0.749730248326E+00  0.734790379473E+00
  0.710608931094E+00  0.677195101207E+00  0.634674110745E+00  0.583287185406E+00  0.523389374843E+00
  0.455445377428E+00  0.380023607854E+00  0.297788746309E+00  0.209492986863E+00  0.115966178631E+00
  0.181050404564E-01 -0.831383722179E-01 -0.186768761339E+00 -0.291760039051E+00 -0.397067925222E+00
 -0.501642472643E+00 -0.604440315923E+00 -0.704436448320E+00 -0.800635319870E+00 -0.892080947833E+00
 -0.977865570384E+00 -0.105713623074E+01 -0.112909885255E+01 -0.119302008615E+01 -0.124822829671E+01
 -0.129411569912E+01 -0.133014299370E+01 -0.135584618639E+01 -0.137084390086E+01 -0.137484340709E+01
 -0.136764442429E+01 -0.134914063715E+01 -0.131931924920E+01 -0.127825890836E+01 -0.122612621211E+01
 -0.116317091854E+01 -0.108971996353E+01 -0.100617040841E+01 -0.912981452127E+00 -0.810665648932E+00
 -0.699779454494E+00 -0.580913194574E+00 -0.454680538394E+00 -0.321707567934E+00 -0.182621583613E+00
 -0.380398767217E-01  0.111441182842E+00  0.265256295348E+00  0.000000000000E+00  0.000000000000E+00
  0.000000000000E+00  0.000000000000E+00  0.000000000000E+00  0.000000000000E+00  0.000000000000E+00
  0.000000000000E+00  0.000000000000E+00  0.000000000000E+00  0.000000000000E+00  0.000000000000E+00
  0.000000000000E+00  0.000000000000E+00  0.000000000000E+00  0.000000000000E+00  0.000000000000E+00
  0.000000000000E+00  0.000000000000E+00  0.000000000000E+00  0.000000000000E+00  0.000000000000E+00
  0.000000000000E+00  0.000000000000E+00  0.000000000000E+00  0.000000000000E+00  0.000000000000E+00
  0.000000000000E+00  0.000000000000E+00  0.000000000000E+00  0.000000000000E+00  0.000000000000E+00
  0.000000000000E+00  0.000000000000E+00  0.000000000000E+00  0.000000000000E+00  0.000000000000E+00
 pseudo wavefunction
  0.730261726400E-12  0.803842214172E-12  0.884836602977E-12  0.973991910535E-12  0.107213042337E-11
  0.118015728084E-11  0.129906882326E-11  0.142996178130E-11  0.157404339116E-11  0.173264252904E-11
  0.190722196744E-11  0.209939186647E-11  0.231092462443E-11  0.254377122484E-11  0.280007923047E-11
  0.308221259048E-11  0.339277344336E-11  0.373462611661E-11  0.411092354469E-11  0.452513634873E-11
  0.498108484643E-11  0.548297428708E-11  0.603543363693E-11  0.664355827251E-11  0.731295697569E-11
  0.804980366392E-11  0.886089433274E-11  0.975370973579E-11  0.107364843804E-10  0.118182824750E-10
  0.130090815292E-10  0.143198643771E-10  0.157627204725E-10  0.173509573913E-10  0.190992235682E-10
  0.210236434001E-10  0.231419659630E-10  0.254737287129E-10  0.280404376810E-10  0.308657658261E-10
  0.339757713716E-10  0.373991381425E-10  0.411674401188E-10  0.453154326443E-10  0.498813729781E-10
  0.549073731439E-10  0.604397883323E-10  0.665296444384E-10  0.732331086773E-10  0.806120076181E-10
  0.887343974152E-10  0.976751914952E-10  0.107516851488E-09  0.118350147778E-09  0.130274996684E-09
  0.143401381994E-09  0.157850369355E-09  0.173755222870E-09  0.191262634199E-09  0.210534075508E-09
  0.231747288740E-09  0.255097924934E-09  0.280801348731E-09  0.309094624698E-09  0.340238703784E-09
  0.374520830089E-09  0.412257190133E-09  0.453795829065E-09  0.499519860696E-09  0.549851000988E-09
  0.605253457554E-09  0.666238211075E-09  0.733367728096E-09  0.807261148684E-09  0.888599996783E-09
  0.978134465940E-09  0.107669033837E-08  0.118517660117E-08  0.130459382996E-08  0.143604341719E-08
  0.158073773035E-08  0.174001129364E-08  0.191533309631E-08  0.210832014123E-08  0.232075235845E-08
  0.255458902156E-08  0.281198681808E-08  0.309531974057E-08  0.340720098197E-08  0.375050703701E-08
  0.412840423214E-08  0.454437792839E-08  0.500226466686E-08  0.550628755289E-08  0.606109520564E-08
  0.667180463200E-08  0.734404842047E-08  0.808402669009E-08  0.889856427362E-08  0.979517366238E-08
  0.107821242931E-07  0.118685188161E-07  0.130643770477E-07  0.143807283815E-07  0.158297135111E-07
  0.174246964012E-07  0.191803875410E-07  0.211129796161E-07  0.232402968498E-07  0.255819593916E-07
  0.281595642686E-07  0.309968845682E-07  0.341200886901E-07  0.375579816884E-07  0.413422709297E-07
  0.455078585175E-07  0.500931631793E-07  0.551404745844E-07  0.606963433601E-07  0.668120104033E-07
  0.735438794448E-07  0.809540372259E-07  0.891108260826E-07  0.980894742172E-07  0.107972789470E-06
  0.118851922985E-06  0.130827209820E-06  0.144009094235E-06  0.158519148209E-06  0.174491192566E-06
  0.192072531043E-06  0.211425308689E-06  0.232728007111E-06  0.256177090347E-06  0.281988816556E-06
  0.310401232204E-06  0.341676367151E-06  0.376102650853E-06  0.413997571966E-06  0.455710605856E-06
  0.501626437007E-06  0.552168506018E-06  0.607802913876E-06  0.669042719500E-06  0.736452670136E-06
  0.810654408218E-06  0.892332202636E-06  0.982239257257E-06  0.108120465477E-05  0.119014099989E-05
  0.131005283220E-05  0.144204588631E-05  0.158733728441E-05  0.174726675521E-05  0.192330898253E-05
  0.211708719726E-05  0.233038813771E-05  0.256517851622E-05  0.282362314342E-05  0.310810487702E-05
  0.342124657865E-05  0.376593528067E-05  0.414534878539E-05  0.456298494106E-05  0.502269386404E-05
  0.552871340320E-05  0.608570817249E-05  0.669881251035E-05  0.737367776059E-05  0.811652430877E-05
  0.893419885209E-05  0.983423742805E-05  0.108249347805E-04  0.119154206990E-04  0.131157440315E-04
  0.144369651402E-04  0.158912576478E-04  0.174920204053E-04  0.192540007064E-04  0.211934298760E-04
  0.233281724711E-04  0.256778904589E-04  0.282642238703E-04  0.311109895772E-04  0.342444000073E-04
  0.376933037878E-04  0.414894505098E-04  0.456677820220E-04  0.502667529001E-04  0.553286830029E-04
  0.609001453110E-04  0.670323925630E-04  0.737818265494E-04  0.812105143046E-04  0.893867558563E-04
  0.983857086476E-04  0.108290074251E-03  0.119190853543E-03  0.131188177105E-03  0.144392218296E-03
  0.158924197131E-03  0.174917483929E-03  0.192518812539E-03  0.211889613895E-03  0.233207481700E-03
  0.256667783181E-03  0.282485429043E-03  0.310896818175E-03  0.342161974056E-03  0.376566891477E-03
  0.414426113888E-03  0.456085563627E-03  0.501925649334E-03  0.552364677085E-03  0.607862594263E-03
  0.668925097788E-03  0.736108141213E-03  0.810022878285E-03  0.891341083923E-03  0.980801097158E-03
  0.107921433448E-02  0.118747242621E-02  0.130655503298E-02  0.143753840415E-02  0.158160474523E-02
  0.174005246665E-02  0.191430739201E-02  0.210593501012E-02  0.231665386144E-02  0.254835015622E-02
  0.280309372864E-02  0.308315543838E-02  0.339102613848E-02  0.372943733582E-02  0.410138367795E-02
  0.451014740750E-02  0.495932493248E-02  0.545285566769E-02  0.599505330828E-02  0.659063970199E-02
  0.724478149050E-02  0.796312969261E-02  0.875186240255E-02  0.961773077429E-02  0.105681084572E-01
  0.116110446394E-01  0.127553208394E-01  0.140105115697E-01  0.153870489633E-01  0.168962914249E-01
  0.185505963181E-01  0.203633966434E-01  0.223492815947E-01  0.245240807883E-01  0.269049518601E-01
  0.295104709948E-01  0.323607258037E-01  0.354774097876E-01  0.388839174144E-01  0.426054385953E-01
  0.466690510632E-01  0.511038088342E-01  0.559408245617E-01  0.612133431769E-01  0.669568037393E-01
  0.732088858993E-01  0.800095367998E-01  0.874009736163E-01  0.954276562642E-01  0.104136224085E+00
  0.113575389585E+00  0.123795781559E+00  0.134849729176E+00  0.146790977949E+00  0.159674327893E+00
  0.173555183748E+00  0.188489006906E+00  0.204530658777E+00  0.221733625788E+00  0.240149117260E+00
  0.259825029082E+00  0.280804768636E+00  0.303125939990E+00  0.326818893129E+00  0.351905147193E+00
  0.378395705441E+00  0.406289289250E+00  0.435570529844E+00  0.466208169811E+00  0.498153341577E+00
  0.531338006606E+00  0.565673656633E+00  0.601050395739E+00  0.637336538164E+00  0.674378869562E+00
  0.712003726124E+00  0.750019043464E+00  0.788217510892E+00  0.826380931813E+00  0.864285831398E+00
  0.901710262233E+00  0.938441630709E+00  0.974285195977E+00  0.100907267533E+01  0.104267012484E+01
  0.107498395717E+01  0.110596362388E+01  0.113559915289E+01  0.116391143453E+01  0.119093295174E+01
  0.121667663426E+01  0.124109078766E+01  0.126399873097E+01  0.128502300947E+01  0.130366823302E+01
  0.131989539402E+01  0.133382041112E+01  0.134557238897E+01  0.000000000000E+00  0.000000000000E+00
  0.000000000000E+00  0.000000000000E+00  0.000000000000E+00  0.000000000000E+00  0.000000000000E+00
  0.000000000000E+00  0.000000000000E+00  0.000000000000E+00  0.000000000000E+00  0.000000000000E+00
  0.000000000000E+00  0.000000000000E+00  0.000000000000E+00  0.000000000000E+00  0.000000000000E+00
  0.000000000000E+00  0.000000000000E+00  0.000000000000E+00  0.000000000000E+00  0.000000000000E+00
  0.000000000000E+00  0.000000000000E+00  0.000000000000E+00  0.000000000000E+00  0.000000000000E+00
  0.000000000000E+00  0.000000000000E+00  0.000000000000E+00  0.000000000000E+00  0.000000000000E+00
  0.000000000000E+00  0.000000000000E+00  0.000000000000E+00  0.000000000000E+00  0.000000000000E+00
 ae wavefunction
  0.548509868514E-08  0.598591610567E-08  0.652937704377E-08  0.711936883794E-08  0.776011460163E-08
  0.845620395443E-08  0.921262645698E-08  0.100348079988E-07  0.109286504113E-07  0.119005746042E-07
  0.129575675483E-07  0.141072334592E-07  0.153578495686E-07  0.167184269024E-07  0.181987765291E-07
  0.198095817766E-07  0.215624769730E-07  0.234701332959E-07  0.255463524108E-07  0.278061685810E-07
  0.302659600581E-07  0.329435705893E-07  0.358584419874E-07  0.390317587680E-07  0.424866059810E-07
  0.462481414518E-07  0.503437837574E-07  0.548034173989E-07  0.596596167602E-07  0.649478905916E-07
  0.707069489264E-07  0.769789944974E-07  0.838100409469E-07  0.912502603027E-07  0.993543624531E-07
  0.108182009588E-06  0.117798268871E-06  0.128274106895E-06  0.139686929836E-06  0.152121173538E-06
  0.165668948227E-06  0.180430742936E-06  0.196516195231E-06  0.214044932346E-06  0.233147490419E-06
  0.253966319136E-06  0.276656879798E-06  0.301388845561E-06  0.328347413446E-06  0.357734738609E-06
  0.389771502342E-06  0.424698626388E-06  0.462779147299E-06  0.504300265903E-06  0.549575588328E-06
  0.598947576623E-06  0.652790228672E-06  0.711512008989E-06  0.775559054006E-06  0.845418677676E-06
  0.921623205659E-06  0.100475416902E-05  0.109544689127E-05  0.119439550574E-05  0.130235844379E-05
  0.142016443815E-05  0.154871908979E-05  0.168901205136E-05  0.184212488499E-05  0.200923965796E-05
  0.219164834537E-05  0.239076311562E-05  0.260812758133E-05  0.284542910632E-05  0.310451226737E-05
  0.338739357892E-05  0.369627759857E-05  0.403357454248E-05  0.440191955143E-05  0.480419376127E-05
  0.524354734581E-05  0.572342471532E-05  0.624759207087E-05  0.682016753282E-05  0.744565408160E-05
  0.812897557074E-05  0.887551609560E-05  0.969116302669E-05  0.105823540444E-04  0.115561285423E-04
  0.126201837989E-04  0.137829363532E-04  0.150535890589E-04  0.164422043324E-04  0.179597841578E-04
  0.196183574587E-04  0.214310755024E-04  0.234123160575E-04  0.255777970916E-04  0.279447008606E-04
  0.305318093144E-04  0.333596518269E-04  0.364506663357E-04  0.398293750774E-04  0.435225761960E-04
  0.475595526133E-04  0.519722996633E-04  0.567957731132E-04  0.620681593314E-04  0.678311694982E-04
  0.741303599126E-04  0.810154806049E-04  0.885408546463E-04  0.967657907230E-04  0.105755031748E-03
  0.115579242487E-03  0.126315539407E-03  0.138048066177E-03  0.150868618524E-03  0.164877322395E-03
  0.180183369650E-03  0.196905815833E-03  0.215174444843E-03  0.235130705673E-03  0.256928726702E-03
  0.280736413403E-03  0.306736635652E-03  0.335128511234E-03  0.366128792505E-03  0.399973363555E-03
  0.436918855639E-03  0.477244388998E-03  0.521253449646E-03  0.569275910036E-03  0.621670202938E-03
  0.678825658221E-03  0.741165012563E-03  0.809147102450E-03  0.883269751081E-03  0.964072860044E-03
  0.105214171677E-02  0.114811052892E-02  0.125266619675E-02  0.136655233463E-02  0.149057355232E-02
  0.162560000668E-02  0.177257223353E-02  0.193250626895E-02  0.210649906837E-02  0.229573423026E-02
  0.250148803036E-02  0.272513576994E-02  0.296815843998E-02  0.323214970026E-02  0.351882316960E-02
  0.383002001968E-02  0.416771686133E-02  0.453403390705E-02  0.493124338850E-02  0.536177820178E-02
  0.582824074632E-02  0.633341191574E-02  0.688026019066E-02  0.747195077376E-02  0.811185469713E-02
  0.880355782062E-02  0.955086962693E-02  0.103578317060E-01  0.112287258060E-01  0.121680813133E-01
  0.131806820043E-01  0.142715718976E-01  0.154460600116E-01  0.167097238142E-01  0.180684111273E-01
  0.195282402266E-01  0.210955978459E-01  0.227771347697E-01  0.245797586609E-01  0.265106237339E-01
  0.285771168473E-01  0.307868395487E-01  0.331475855784E-01  0.356673133134E-01  0.383541126345E-01
  0.412161657083E-01  0.442617012047E-01  0.474989415007E-01  0.509360424537E-01  0.545810253517E-01
  0.584417006645E-01  0.625255832295E-01  0.668397985125E-01  0.713909795900E-01  0.761851545167E-01
  0.812276237861E-01  0.865228276662E-01  0.920742033048E-01  0.978840316348E-01  0.103953274274E+00
  0.110281400788E+00  0.116866206888E+00  0.123703624361E+00  0.130787523772E+00  0.138109511266E+00
  0.145658721084E+00  0.153421605746E+00  0.161381726164E+00  0.169519544333E+00  0.177812221573E+00
  0.186233425660E+00  0.194753150539E+00  0.203337552615E+00  0.211948807950E+00  0.220544994930E+00
  0.229080007221E+00  0.237503501939E+00  0.245760888000E+00  0.253793359396E+00  0.261537977615E+00
  0.268927806376E+00  0.275892100409E+00  0.282356548306E+00  0.288243568369E+00  0.293472656944E+00
  0.297960792078E+00  0.301622901505E+00  0.304372411642E+00  0.306121899666E+00  0.306783869355E+00
  0.306271657639E+00  0.304500457402E+00  0.301388423215E+00  0.296857826323E+00  0.290836239610E+00
  0.283257748048E+00  0.274064183819E+00  0.263206379715E+00  0.250645427041E+00  0.236353920225E+00
  0.220317170121E+00  0.202534369255E+00  0.183019693001E+00  0.161803319876E+00  0.138932351970E+00
  0.114471613545E+00  0.885043027958E-01  0.611324692225E-01  0.324772877707E-01  0.267910149910E-02
 -0.281027926170E-01 -0.596906352832E-01 -0.918889891619E-01 -0.124485828417E+00 -0.157253949014E+00
 -0.189952721536E+00 -0.222330200392E+00 -0.254125539385E+00 -0.285071495926E+00 -0.314896568536E+00
 -0.343326257240E+00 -0.370083467057E+00 -0.394889279934E+00 -0.417466059450E+00 -0.437543323755E+00
 -0.454864107840E+00 -0.469189564364E+00 -0.480301850749E+00 -0.488006380658E+00 -0.492134073639E+00
 -0.492543657858E+00 -0.489123802969E+00 -0.481794816067E+00 -0.470509726612E+00 -0.455254716771E+00
 -0.436048946068E+00 -0.412943857924E+00 -0.386022054990E+00 -0.355395815226E+00 -0.321205301511E+00
 -0.283616503894E+00 -0.242818945083E+00 -0.199023177359E+00 -0.152458104397E+00 -0.103368168053E+00
 -0.520104484524E-01  0.134827168500E-02  0.564344307226E-01  0.112970549107E+00  0.170677952191E+00
  0.229279205359E+00  0.288500008096E+00  0.348070248886E+00  0.407724090363E+00  0.467199389766E+00
  0.526237225973E+00  0.584582365602E+00  0.641984998862E+00  0.698203398201E+00  0.753006844535E+00
  0.806178310319E+00  0.857516715063E+00  0.906838778925E+00  0.953980557417E+00  0.998798705835E+00
  0.104117148663E+01  0.108099951617E+01  0.111820626163E+01  0.115273830957E+01  0.118456544308E+01
  0.121368055864E+01  0.124009942665E+01  0.126386026067E+01  0.128502300947E+01  0.130366823302E+01
  0.131989539402E+01  0.133382041112E+01  0.134557238897E+01  0.000000000000E+00  0.000000000000E+00
  0.000000000000E+00  0.000000000000E+00  0.000000000000E+00  0.000000000000E+00  0.000000000000E+00
  0.000000000000E+00  0.000000000000E+00  0.000000000000E+00  0.000000000000E+00  0.000000000000E+00
  0.000000000000E+00  0.000000000000E+00  0.000000000000E+00  0.000000000000E+00  0.000000000000E+00
  0.000000000000E+00  0.000000000000E+00  0.000000000000E+00  0.000000000000E+00  0.000000000000E+00
  0.000000000000E+00  0.000000000000E+00  0.000000000000E+00  0.000000000000E+00  0.000000000000E+00
  0.000000000000E+00  0.000000000000E+00  0.000000000000E+00  0.000000000000E+00  0.000000000000E+00
  0.000000000000E+00  0.000000000000E+00  0.000000000000E+00  0.000000000000E+00  0.000000000000E+00
 End of Dataset
  PAW_PBE Cl 06Sep2000
   7.00000000000000
 parameters from PSCTR are:
   VRHFIN =Cl: s2p5
   LEXCH  = PE
   EATOM  =   409.7259 eV,   30.1140 Ry

   TITEL  = PAW_PBE Cl 06Sep2000
   LULTRA =        F    use ultrasoft PP ?
   IUNSCR =        1    unscreen: 0-lin 1-nonlin 2-no
   RPACOR =    1.500    partial core radius
   POMASS =   35.453; ZVAL   =    7.000    mass and valenz
   RCORE  =    1.900    outmost cutoff radius
   RWIGS  =    2.100; RWIGS  =    1.111    wigner-seitz radius (au A)
   ENMAX  =  262.472; ENMIN  =  196.854 eV
   ICORE  =        2    local potential
   LCOR   =        T    correct aug charges
   LPAW   =        T    paw PP
   EAUG   =  356.192
   DEXC   =    0.000
   RMAX   =    1.945    core radius for proj-oper
   RAUG   =    1.300    factor for augmentation sphere
   RDEP   =    2.020    radius for radial grids
   RDEPT  =    1.678    core radius for aug-charge

   Atomic configuration
    6 entries
     n  l   j            E        occ.
     1  0  0.50     -2751.1850   2.0000
     2  0  0.50      -252.6861   2.0000
     2  1  1.50      -191.6157   6.0000
     3  0  0.50       -20.6916   2.0000
     3  1  0.50        -8.5949   5.0000
     3  2  1.50        -8.1635   0.0000
   Description
     l       E           TYP  RCUT    TYP  RCUT
     0    -20.6915656     23  1.900
     0    -22.0521482     23  1.900
     1     -8.5948577     23  1.900
     1     -5.3847331     23  1.900
     2     -8.1634956     23  1.900
   Error from kinetic energy argument (eV)
   NDATA  =      100
   STEP   =   20.000   1.050
  123.      118.      116.      111.      109.      104.      99.4      97.1
  92.5      87.9      85.7      81.2      76.9      72.7      68.6      64.6
  60.7      57.0      53.5      48.4      45.2      42.2      37.9      35.3
  32.7      29.2      26.0      24.0      21.2      18.7      16.5      14.5
  12.6      11.0      9.56      8.28      6.79      5.83      4.73      4.03
  3.23      2.56      2.02      1.58      1.22     0.936     0.708     0.492
 0.362     0.241     0.158     0.110     0.692E-01 0.432E-01 0.251E-01 0.172E-01
 0.132E-01 0.112E-01 0.106E-01 0.104E-01 0.100E-01 0.930E-02 0.825E-02 0.678E-02
 0.548E-02 0.411E-02 0.299E-02 0.219E-02 0.163E-02 0.138E-02 0.127E-02 0.123E-02
 0.119E-02 0.110E-02 0.952E-03 0.791E-03 0.615E-03 0.475E-03 0.378E-03 0.337E-03
 0.320E-03 0.308E-03 0.286E-03 0.245E-03 0.197E-03 0.156E-03 0.131E-03 0.119E-03
 0.114E-03 0.107E-03 0.920E-04 0.758E-04 0.608E-04 0.538E-04 0.509E-04 0.477E-04
 0.412E-04 0.340E-04 0.282E-04 0.260E-04
END of PSCTR-controll parameters
 local part
   98.2657514061040
  0.30171407E+02  0.30178791E+02  0.30190147E+02  0.30209033E+02  0.30235389E+02
  0.30269126E+02  0.30310128E+02  0.30358249E+02  0.30413313E+02  0.30475109E+02
  0.30543395E+02  0.30617897E+02  0.30698308E+02  0.30784289E+02  0.30875474E+02
  0.30971470E+02  0.31071856E+02  0.31176191E+02  0.31284010E+02  0.31394827E+02
  0.31508138E+02  0.31623420E+02  0.31740132E+02  0.31857715E+02  0.31975597E+02
  0.32093186E+02  0.32209882E+02  0.32325069E+02  0.32438121E+02  0.32548404E+02
  0.32655278E+02  0.32758097E+02  0.32856214E+02  0.32948980E+02  0.33035748E+02
  0.33115877E+02  0.33188727E+02  0.33253668E+02  0.33310080E+02  0.33357353E+02
  0.33394892E+02  0.33422118E+02  0.33438468E+02  0.33443403E+02  0.33436404E+02
  0.33416978E+02  0.33384660E+02  0.33339013E+02  0.33279630E+02  0.33206137E+02
  0.33118197E+02  0.33015505E+02  0.32897795E+02  0.32764841E+02  0.32616456E+02
  0.32452495E+02  0.32272856E+02  0.32077479E+02  0.31866350E+02  0.31639499E+02
  0.31397002E+02  0.31138981E+02  0.30865602E+02  0.30577077E+02  0.30273663E+02
  0.29955664E+02  0.29623424E+02  0.29277332E+02  0.28917819E+02  0.28545358E+02
  0.28160459E+02  0.27763672E+02  0.27355582E+02  0.26936809E+02  0.26508006E+02
  0.26069853E+02  0.25623061E+02  0.25168364E+02  0.24706518E+02  0.24238302E+02
  0.23764508E+02  0.23285945E+02  0.22803431E+02  0.22317794E+02  0.21829866E+02
  0.21340481E+02  0.20850474E+02  0.20360673E+02  0.19871901E+02  0.19384971E+02
  0.18900680E+02  0.18419812E+02  0.17943130E+02  0.17471378E+02  0.17005272E+02
  0.16545504E+02  0.16092736E+02  0.15647599E+02  0.15210691E+02  0.14782572E+02
  0.14363768E+02  0.13954765E+02  0.13556009E+02  0.13167904E+02  0.12790813E+02
  0.12425055E+02  0.12070905E+02  0.11728596E+02  0.11398314E+02  0.11080204E+02
  0.10774364E+02  0.10480851E+02  0.10199679E+02  0.99308189E+01  0.96742017E+01
  0.94297185E+01  0.91972223E+01  0.89765290E+01  0.87674199E+01  0.85696428E+01
  0.83829144E+01  0.82069224E+01  0.80413275E+01  0.78857659E+01  0.77398514E+01
  0.76031780E+01  0.74753225E+01  0.73558464E+01  0.72442994E+01  0.71402208E+01
  0.70431429E+01  0.69525933E+01  0.68680969E+01  0.67891791E+01  0.67153676E+01
  0.66461949E+01  0.65812003E+01  0.65199325E+01  0.64619509E+01  0.64068281E+01
  0.63541511E+01  0.63035235E+01  0.62545663E+01  0.62069199E+01  0.61602450E+01
  0.61142234E+01  0.60685595E+01  0.60229803E+01  0.59772368E+01  0.59311035E+01
  0.58843794E+01  0.58368877E+01  0.57884759E+01  0.57390154E+01  0.56884015E+01
  0.56365525E+01  0.55834094E+01  0.55289352E+01  0.54731139E+01  0.54159494E+01
  0.53574650E+01  0.52977016E+01  0.52367173E+01  0.51745851E+01  0.51113925E+01
  0.50472395E+01  0.49822376E+01  0.49165079E+01  0.48501800E+01  0.47833905E+01
  0.47162813E+01  0.46489985E+01  0.45816908E+01  0.45145078E+01  0.44475995E+01
  0.43811142E+01  0.43151976E+01  0.42499914E+01  0.41856328E+01  0.41222525E+01
  0.40599748E+01  0.39989160E+01  0.39391838E+01  0.38808770E+01  0.38240844E+01
  0.37688848E+01  0.37153462E+01  0.36635258E+01  0.36134699E+01  0.35652132E+01
  0.35187798E+01  0.34741822E+01  0.34314223E+01  0.33904913E+01  0.33513698E+01
  0.33140290E+01  0.32784301E+01  0.32445260E+01  0.32122608E+01  0.31815714E+01
  0.31523874E+01  0.31246323E+01  0.30982243E+01  0.30730767E+01  0.30490989E+01
  0.30261972E+01  0.30042757E+01  0.29832370E+01  0.29629828E+01  0.29434150E+01
  0.29244365E+01  0.29059514E+01  0.28878663E+01  0.28700907E+01  0.28525375E+01
  0.28351238E+01  0.28177711E+01  0.28004062E+01  0.27829612E+01  0.27653742E+01
  0.27475891E+01  0.27295564E+01  0.27112332E+01  0.26925831E+01  0.26735766E+01
  0.26541907E+01  0.26344093E+01  0.26142229E+01  0.25936283E+01  0.25726286E+01
  0.25512327E+01  0.25294553E+01  0.25073165E+01  0.24848411E+01  0.24620588E+01
  0.24390032E+01  0.24157117E+01  0.23922248E+01  0.23685859E+01  0.23448405E+01
  0.23210359E+01  0.22972208E+01  0.22734443E+01  0.22497561E+01  0.22262054E+01
  0.22028409E+01  0.21797101E+01  0.21568589E+01  0.21343314E+01  0.21121692E+01
  0.20904115E+01  0.20690944E+01  0.20482508E+01  0.20279102E+01  0.20080983E+01
  0.19888372E+01  0.19701449E+01  0.19520354E+01  0.19345188E+01  0.19176008E+01
  0.19012834E+01  0.18855645E+01  0.18704379E+01  0.18558941E+01  0.18419197E+01
  0.18284980E+01  0.18156091E+01  0.18032302E+01  0.17913358E+01  0.17798981E+01
  0.17688869E+01  0.17582706E+01  0.17480157E+01  0.17380878E+01  0.17284516E+01
  0.17190714E+01  0.17099111E+01  0.17009348E+01  0.16921071E+01  0.16833932E+01
  0.16747594E+01  0.16661734E+01  0.16576041E+01  0.16490224E+01  0.16404010E+01
  0.16317149E+01  0.16229415E+01  0.16140603E+01  0.16050537E+01  0.15959067E+01
  0.15866070E+01  0.15771450E+01  0.15675139E+01  0.15577098E+01  0.15477312E+01
  0.15375796E+01  0.15272588E+01  0.15167752E+01  0.15061374E+01  0.14953564E+01
  0.14844450E+01  0.14734179E+01  0.14622917E+01  0.14510842E+01  0.14398144E+01
  0.14285025E+01  0.14171695E+01  0.14058369E+01  0.13945266E+01  0.13832605E+01
  0.13720607E+01  0.13609487E+01  0.13499458E+01  0.13390722E+01  0.13283477E+01
  0.13177906E+01  0.13074184E+01  0.12972468E+01  0.12872903E+01  0.12775617E+01
  0.12680722E+01  0.12588310E+01  0.12498455E+01  0.12411215E+01  0.12326625E+01
  0.12244703E+01  0.12165448E+01  0.12088840E+01  0.12014841E+01  0.11943395E+01
  0.11874431E+01  0.11807860E+01  0.11743580E+01  0.11681474E+01  0.11621413E+01
  0.11563258E+01  0.11506859E+01  0.11452062E+01  0.11398701E+01  0.11346609E+01
  0.11295617E+01  0.11245550E+01  0.11196237E+01  0.11147508E+01  0.11099195E+01
  0.11051135E+01  0.11003172E+01  0.10955156E+01  0.10906947E+01  0.10858412E+01
  0.10809432E+01  0.10759898E+01  0.10709714E+01  0.10658795E+01  0.10607073E+01
  0.10554490E+01  0.10501005E+01  0.10446590E+01  0.10391231E+01  0.10334929E+01
  0.10277696E+01  0.10219560E+01  0.10160561E+01  0.10100750E+01  0.10040190E+01
  0.99789539E+00  0.99171255E+00  0.98547957E+00  0.97920634E+00  0.97290335E+00
  0.96658163E+00  0.96025259E+00  0.95392791E+00  0.94761943E+00  0.94133900E+00
  0.93509842E+00  0.92890928E+00  0.92278284E+00  0.91672998E+00  0.91076103E+00
  0.90488572E+00  0.89911309E+00  0.89345137E+00  0.88790798E+00  0.88248939E+00
  0.87720113E+00  0.87204770E+00  0.86703261E+00  0.86215829E+00  0.85742611E+00
  0.85283640E+00  0.84838841E+00  0.84408039E+00  0.83990958E+00  0.83587225E+00
  0.83196378E+00  0.82817867E+00  0.82451061E+00  0.82095261E+00  0.81749698E+00
  0.81413551E+00  0.81085947E+00  0.80765976E+00  0.80452697E+00  0.80145149E+00
  0.79842359E+00  0.79543351E+00  0.79247156E+00  0.78952821E+00  0.78659415E+00
  0.78366043E+00  0.78071846E+00  0.77776016E+00  0.77477800E+00  0.77176503E+00
  0.76871500E+00  0.76562236E+00  0.76248230E+00  0.75929082E+00  0.75604472E+00
  0.75274163E+00  0.74938001E+00  0.74595914E+00  0.74247915E+00  0.73894097E+00
  0.73534631E+00  0.73169767E+00  0.72799823E+00  0.72425190E+00  0.72046317E+00
  0.71663715E+00  0.71277944E+00  0.70889610E+00  0.70499357E+00  0.70107861E+00
  0.69715822E+00  0.69323955E+00  0.68932988E+00  0.68543648E+00  0.68156659E+00
  0.67772733E+00  0.67392562E+00  0.67016814E+00  0.66646125E+00  0.66281093E+00
  0.65922271E+00  0.65570166E+00  0.65225232E+00  0.64887865E+00  0.64558402E+00
  0.64237116E+00  0.63924220E+00  0.63619856E+00  0.63324103E+00  0.63036973E+00
  0.62758412E+00  0.62488302E+00  0.62226461E+00  0.61972649E+00  0.61726567E+00
  0.61487860E+00  0.61256126E+00  0.61030916E+00  0.60811741E+00  0.60598075E+00
  0.60389363E+00  0.60185025E+00  0.59984464E+00  0.59787067E+00  0.59592218E+00
  0.59399296E+00  0.59207689E+00  0.59016792E+00  0.58826017E+00  0.58634799E+00
  0.58442597E+00  0.58248905E+00  0.58053249E+00  0.57855197E+00  0.57654361E+00
  0.57450399E+00  0.57243019E+00  0.57031979E+00  0.56817091E+00  0.56598221E+00
  0.56375288E+00  0.56148268E+00  0.55917187E+00  0.55682128E+00  0.55443223E+00
  0.55200653E+00  0.54954648E+00  0.54705481E+00  0.54453467E+00  0.54198956E+00
  0.53942334E+00  0.53684013E+00  0.53424432E+00  0.53164049E+00  0.52903334E+00
  0.52642773E+00  0.52382851E+00  0.52124057E+00  0.51866876E+00  0.51611781E+00
  0.51359235E+00  0.51109680E+00  0.50863537E+00  0.50621200E+00  0.50383034E+00
  0.50149369E+00  0.49920501E+00  0.49696685E+00  0.49478135E+00  0.49265025E+00
  0.49057483E+00  0.48855592E+00  0.48659391E+00  0.48468874E+00  0.48283991E+00
  0.48104646E+00  0.47930705E+00  0.47761988E+00  0.47598281E+00  0.47439330E+00
  0.47284850E+00  0.47134524E+00  0.46988010E+00  0.46844940E+00  0.46704929E+00
  0.46567575E+00  0.46432464E+00  0.46299176E+00  0.46167285E+00  0.46036368E+00
  0.45906004E+00  0.45775783E+00  0.45645305E+00  0.45514188E+00  0.45382067E+00
  0.45248601E+00  0.45113477E+00  0.44976406E+00  0.44837134E+00  0.44695439E+00
  0.44551133E+00  0.44404066E+00  0.44254123E+00  0.44101229E+00  0.43945345E+00
  0.43786471E+00  0.43624645E+00  0.43459941E+00  0.43292469E+00  0.43122374E+00
  0.42949832E+00  0.42775050E+00  0.42598264E+00  0.42419734E+00  0.42239742E+00
  0.42058591E+00  0.41876600E+00  0.41694099E+00  0.41511428E+00  0.41328934E+00
  0.41146966E+00  0.40965872E+00  0.40785994E+00  0.40607670E+00  0.40431224E+00
  0.40256967E+00  0.40085194E+00  0.39916178E+00  0.39750171E+00  0.39587401E+00
  0.39428067E+00  0.39272342E+00  0.39120368E+00  0.38972255E+00  0.38828083E+00
  0.38687899E+00  0.38551717E+00  0.38419520E+00  0.38291258E+00  0.38166851E+00
  0.38046186E+00  0.37929124E+00  0.37815498E+00  0.37705114E+00  0.37597757E+00
  0.37493188E+00  0.37391151E+00  0.37291374E+00  0.37193572E+00  0.37097449E+00
  0.37002702E+00  0.36909024E+00  0.36816106E+00  0.36723639E+00  0.36631322E+00
  0.36538858E+00  0.36445961E+00  0.36352358E+00  0.36257791E+00  0.36162020E+00
  0.36064823E+00  0.35966003E+00  0.35865383E+00  0.35762813E+00  0.35658168E+00
  0.35551352E+00  0.35442294E+00  0.35330952E+00  0.35217313E+00  0.35101390E+00
  0.34983226E+00  0.34862889E+00  0.34740473E+00  0.34616099E+00  0.34489908E+00
  0.34362067E+00  0.34232760E+00  0.34102189E+00  0.33970574E+00  0.33838147E+00
  0.33705150E+00  0.33571835E+00  0.33438459E+00  0.33305283E+00  0.33172570E+00
  0.33040578E+00  0.32909563E+00  0.32779776E+00  0.32651454E+00  0.32524828E+00
  0.32400111E+00  0.32277504E+00  0.32157187E+00  0.32039323E+00  0.31924054E+00
  0.31811500E+00  0.31701758E+00  0.31594901E+00  0.31490978E+00  0.31390014E+00
  0.31292010E+00  0.31196941E+00  0.31104761E+00  0.31015396E+00  0.30928755E+00
  0.30844720E+00  0.30763158E+00  0.30683914E+00  0.30606815E+00  0.30531676E+00
  0.30458296E+00  0.30386465E+00  0.30315960E+00  0.30246555E+00  0.30178018E+00
  0.30110113E+00  0.30042606E+00  0.29975263E+00  0.29907855E+00  0.29840161E+00
  0.29771966E+00  0.29703065E+00  0.29633269E+00  0.29562398E+00  0.29490293E+00
  0.29416809E+00  0.29341820E+00  0.29265219E+00  0.29186921E+00  0.29106860E+00
  0.29024994E+00  0.28941299E+00  0.28855775E+00  0.28768443E+00  0.28679345E+00
  0.28588543E+00  0.28496120E+00  0.28402176E+00  0.28306829E+00  0.28210216E+00
  0.28112486E+00  0.28013803E+00  0.27914340E+00  0.27814282E+00  0.27713822E+00
  0.27613157E+00  0.27512491E+00  0.27412025E+00  0.27311964E+00  0.27212511E+00
  0.27113861E+00  0.27016208E+00  0.26919736E+00  0.26824618E+00  0.26731018E+00
  0.26639088E+00  0.26548962E+00  0.26460764E+00  0.26374596E+00  0.26290546E+00
  0.26208683E+00  0.26129058E+00  0.26051703E+00  0.25976629E+00  0.25903829E+00
  0.25833279E+00  0.25764934E+00  0.25698732E+00  0.25634592E+00  0.25572419E+00
  0.25512101E+00  0.25453511E+00  0.25396510E+00  0.25340949E+00  0.25286665E+00
  0.25233491E+00  0.25181249E+00  0.25129761E+00  0.25078842E+00  0.25028307E+00
  0.24977971E+00  0.24927652E+00  0.24877170E+00  0.24826354E+00  0.24775035E+00
  0.24723058E+00  0.24670274E+00  0.24616549E+00  0.24561758E+00  0.24505794E+00
  0.24448563E+00  0.24389984E+00  0.24329998E+00  0.24268557E+00  0.24205634E+00
  0.24141217E+00  0.24075311E+00  0.24007938E+00  0.23939139E+00  0.23868968E+00
  0.23797495E+00  0.23724805E+00  0.23650999E+00  0.23576187E+00  0.23500492E+00
  0.23424048E+00  0.23346998E+00  0.23269489E+00  0.23191677E+00  0.23113722E+00
  0.23035785E+00  0.22958030E+00  0.22880618E+00  0.22803711E+00  0.22727465E+00
  0.22652031E+00  0.22577555E+00  0.22504175E+00  0.22432018E+00  0.22361201E+00
  0.22291830E+00  0.22224000E+00  0.22157790E+00  0.22093265E+00  0.22030477E+00
  0.21969464E+00  0.21910245E+00  0.21852827E+00  0.21797200E+00  0.21743341E+00
  0.21691210E+00  0.21640753E+00  0.21591904E+00  0.21544582E+00  0.21498694E+00
  0.21454136E+00  0.21410796E+00  0.21368549E+00  0.21327266E+00  0.21286809E+00
  0.21247037E+00  0.21207805E+00  0.21168963E+00  0.21130365E+00  0.21091862E+00
  0.21053308E+00  0.21014561E+00  0.20975484E+00  0.20935943E+00  0.20895816E+00
  0.20854986E+00  0.20813346E+00  0.20770800E+00  0.20727265E+00  0.20682667E+00
  0.20636946E+00  0.20590055E+00  0.20541963E+00  0.20492647E+00  0.20442104E+00
  0.20390340E+00  0.20337377E+00  0.20283250E+00  0.20228005E+00  0.20171704E+00
  0.20114416E+00  0.20056225E+00  0.19997222E+00  0.19937510E+00  0.19877197E+00
  0.19816399E+00  0.19755239E+00  0.19693841E+00  0.19632336E+00  0.19570854E+00
  0.19509527E+00  0.19448486E+00  0.19387860E+00  0.19327775E+00  0.19268352E+00
  0.19209708E+00  0.19151952E+00  0.19095186E+00  0.19039503E+00  0.18984987E+00
  0.18931710E+00  0.18879736E+00  0.18829115E+00  0.18779887E+00  0.18732078E+00
  0.18685705E+00  0.18640768E+00  0.18597259E+00  0.18555155E+00  0.18514422E+00
  0.18475016E+00  0.18436879E+00  0.18399945E+00  0.18364138E+00  0.18329372E+00
  0.18295554E+00  0.18262582E+00  0.18230352E+00  0.18198751E+00  0.18167664E+00
  0.18136973E+00  0.18106559E+00  0.18076301E+00  0.18046082E+00  0.18015782E+00
  0.17985289E+00  0.17954490E+00  0.17923282E+00  0.17891565E+00  0.17859246E+00
  0.17826241E+00  0.17792474E+00  0.17757879E+00  0.17722399E+00  0.17685988E+00
  0.17648611E+00  0.17610242E+00  0.17570867E+00  0.17530485E+00  0.17489105E+00
  0.17446744E+00  0.17403435E+00  0.17359216E+00  0.17314139E+00  0.17268263E+00
  0.17221657E+00  0.17174398E+00  0.17126567E+00  0.17078256E+00  0.17029559E+00
  0.16980576E+00  0.16931409E+00  0.16882164E+00  0.16832948E+00  0.16783866E+00
  0.16735024E+00  0.16686528E+00  0.16638479E+00  0.16590973E+00  0.16544106E+00
  0.16497963E+00  0.16452627E+00  0.16408171E+00  0.16364662E+00  0.16322158E+00
  0.16280707E+00  0.16240348E+00  0.16201113E+00  0.16163021E+00  0.16126081E+00
  0.16090295E+00  0.16055652E+00  0.16022132E+00  0.15989706E+00  0.15958336E+00
  0.15927974E+00  0.15898564E+00  0.15870043E+00  0.15842341E+00  0.15815379E+00
  0.15789077E+00  0.15763346E+00  0.15738095E+00  0.15713231E+00  0.15688658E+00
  0.15664278E+00  0.15639995E+00  0.15615712E+00  0.15591334E+00  0.15566770E+00
  0.15541929E+00  0.15516729E+00  0.15491089E+00  0.15464937E+00  0.15438205E+00
  0.15410833E+00  0.15382770E+00  0.15353970E+00  0.15324400E+00  0.15294031E+00
  0.15262846E+00  0.15230835E+00  0.15198000E+00  0.15164348E+00  0.15129899E+00
  0.15094678E+00  0.15058721E+00  0.15022069E+00  0.14984774E+00  0.14946893E+00
  0.14908489E+00  0.14869632E+00  0.14830395E+00  0.14790857E+00  0.14751099E+00
  0.14711205E+00  0.14671263E+00  0.14631357E+00  0.14591575E+00  0.14552003E+00
  0.14512725E+00  0.14473823E+00  0.14435377E+00  0.14397459E+00  0.14360142E+00
  0.14323489E+00  0.14287560E+00  0.14252406E+00  0.14218073E+00  0.14184598E+00
  0.14152013E+00  0.14120339E+00  0.14089590E+00  0.14059774E+00  0.14030887E+00
  0.14002920E+00  0.13975855E+00  0.13949666E+00  0.13924319E+00  0.13899774E+00
  0.13875984E+00  0.13852896E+00  0.13830452E+00  0.13808586E+00  0.13787231E+00
  0.13766314E+00  0.13745762E+00  0.13725497E+00  0.13705441E+00  0.13685514E+00
  0.13665637E+00  0.13645733E+00  0.13625725E+00  0.13605537E+00  0.13585100E+00
  0.13564345E+00  0.13543209E+00  0.13521634E+00  0.13499566E+00  0.13476959E+00
  0.13453772E+00  0.13429971E+00  0.13405530E+00  0.13380428E+00  0.13354652E+00
  0.13328199E+00  0.13301070E+00  0.13273275E+00  0.13244830E+00  0.13215759E+00
 gradient corrections used for XC
           5
 core charge-density (partial)
  0.24624570E+00  0.24616843E+00  0.24593676E+00  0.24555108E+00  0.24501205E+00
  0.24432062E+00  0.24347798E+00  0.24248556E+00  0.24134508E+00  0.24005849E+00
  0.23862799E+00  0.23705602E+00  0.23534523E+00  0.23349853E+00  0.23151903E+00
  0.22941004E+00  0.22717508E+00  0.22481786E+00  0.22234227E+00  0.21975238E+00
  0.21705239E+00  0.21424669E+00  0.21133977E+00  0.20833629E+00  0.20524098E+00
  0.20205870E+00  0.19879439E+00  0.19545309E+00  0.19203988E+00  0.18855990E+00
  0.18501835E+00  0.18142046E+00  0.17777145E+00  0.17407657E+00  0.17034107E+00
  0.16657017E+00  0.16276906E+00  0.15894291E+00  0.15509682E+00  0.15123584E+00
  0.14736495E+00  0.14348906E+00  0.13961296E+00  0.13574137E+00  0.13187890E+00
  0.12803004E+00  0.12419915E+00  0.12039048E+00  0.11660814E+00  0.11285607E+00
  0.10913811E+00  0.10545791E+00  0.10181898E+00  0.98224663E-01  0.94678144E-01
  0.91182438E-01  0.87740387E-01  0.84354667E-01  0.81027777E-01  0.77762044E-01
  0.74559619E-01  0.71422483E-01  0.68352437E-01  0.65351115E-01  0.62419975E-01
  0.59560309E-01  0.56773239E-01  0.54059724E-01  0.51420558E-01  0.48856379E-01
  0.46367670E-01  0.43954760E-01  0.41617834E-01  0.39356933E-01  0.37171959E-01
  0.35062681E-01  0.33028742E-01  0.31069660E-01  0.29184836E-01  0.27373560E-01
  0.25635013E-01  0.23968278E-01  0.22372343E-01  0.20846105E-01  0.19388379E-01
  0.17997902E-01  0.16673342E-01  0.15413297E-01  0.14216310E-01  0.13080865E-01
  0.12005401E-01  0.10988313E-01  0.10027958E-01  0.91226623E-02  0.82707240E-02
  0.74704200E-02  0.67200104E-02  0.60177435E-02  0.53618599E-02  0.47505975E-02
  0.41821957E-02  0.36548993E-02  0.31669625E-02  0.27166528E-02  0.23022542E-02
  0.19220709E-02  0.15744300E-02  0.12576850E-02  0.97021793E-03  0.71044228E-03
  0.47680515E-03  0.26778942E-03  0.81915694E-04 -0.82256008E-04 -0.22612467E-03
 -0.35104694E-03 -0.45833597E-03 -0.54926039E-03 -0.62504352E-03 -0.68686270E-03
 -0.73584881E-03 -0.77308596E-03 -0.79961126E-03 -0.81641483E-03 -0.82443988E-03
 -0.82458294E-03 -0.81769425E-03 -0.80457818E-03 -0.78599388E-03 -0.76265588E-03
 -0.73523498E-03 -0.70435903E-03 -0.67061392E-03 -0.63454464E-03 -0.59665628E-03
 -0.55741532E-03 -0.51725069E-03 -0.47655517E-03 -0.43568657E-03 -0.39496913E-03
 -0.35469486E-03 -0.31512492E-03 -0.27649103E-03 -0.23899686E-03 -0.20281945E-03
 -0.16811065E-03 -0.13499850E-03 -0.10358867E-03 -0.73965813E-04 -0.46194959E-04
 -0.20322870E-04  0.36206333E-05  0.25621373E-04  0.45679539E-04  0.63808452E-04
  0.80033359E-04  0.94390270E-04  0.10692483E-03  0.11769125E-03  0.12675125E-03
  0.13417304E-03  0.14003044E-03  0.14440192E-03  0.14736973E-03  0.14901914E-03
  0.14943764E-03  0.14871425E-03  0.14693882E-03  0.14420143E-03  0.14059181E-03
  0.13619882E-03  0.13110993E-03  0.12541083E-03  0.11918500E-03  0.11251337E-03
  0.10547398E-03  0.98141734E-04  0.90588155E-04  0.82881172E-04  0.75084965E-04
  0.67259829E-04  0.59462072E-04  0.51743946E-04  0.44153602E-04  0.36735076E-04
  0.29528298E-04  0.22569120E-04  0.15889376E-04  0.95169468E-05  0.34758584E-05
 -0.22136149E-05 -0.75348273E-05 -0.12474626E-04 -0.17023206E-04 -0.21173952E-04
 -0.24923274E-04 -0.28270436E-04 -0.31217379E-04 -0.33768535E-04 -0.35930649E-04
 -0.37712586E-04 -0.39125144E-04 -0.40180872E-04 -0.40893877E-04 -0.41279648E-04
 -0.41354868E-04 -0.41137243E-04 -0.40645327E-04 -0.39898361E-04 -0.38916103E-04
 -0.37718686E-04 -0.36326460E-04 -0.34759861E-04 -0.33039275E-04 -0.31184913E-04
 -0.29216701E-04 -0.27154166E-04 -0.25016344E-04 -0.22821684E-04 -0.20587971E-04
 -0.18332251E-04 -0.16070768E-04 -0.13818907E-04 -0.11591145E-04 -0.94010147E-05
 -0.72610710E-05 -0.51828655E-05 -0.31769311E-05 -0.12527715E-05  0.58114224E-06
  0.23173685E-05  0.39494864E-05  0.54720807E-05  0.68807229E-05  0.81719457E-05
  0.93432146E-05  0.10392895E-04  0.11320214E-04  0.12125222E-04  0.12808751E-04
  0.13372367E-04  0.13818322E-04  0.14149509E-04  0.14369409E-04  0.14482039E-04
  0.14491903E-04  0.14403937E-04  0.14223459E-04  0.13956115E-04  0.13607831E-04
  0.13184759E-04  0.12693230E-04  0.12139708E-04  0.11530738E-04  0.10872907E-04
  0.10172799E-04  0.94369545E-05  0.86718325E-05  0.78837742E-05  0.70789697E-05
  0.62634266E-05  0.54429417E-05  0.46230749E-05  0.38091259E-05  0.30061138E-05
  0.22187586E-05  0.14514665E-05  0.70831632E-06 -0.69500494E-08 -0.69093581E-06
 -0.13405944E-05 -0.19532327E-05 -0.25265115E-05 -0.30584440E-05 -0.35473928E-05
 -0.39920642E-05 -0.43915006E-05 -0.47450724E-05 -0.50524668E-05 -0.53136759E-05
 -0.55289838E-05 -0.56989521E-05 -0.58244042E-05 -0.59064089E-05 -0.59462636E-05
 -0.59454765E-05 -0.59057478E-05 -0.58289517E-05 -0.57171173E-05 -0.55724092E-05
 -0.53971092E-05 -0.51935966E-05 -0.49643300E-05 -0.47118286E-05 -0.44386543E-05
 -0.41473943E-05 -0.38406437E-05 -0.35209898E-05 -0.31909961E-05 -0.28531874E-05
 -0.25100364E-05 -0.21639501E-05 -0.18172577E-05 -0.14721996E-05 -0.11309171E-05
 -0.79544304E-06 -0.46769390E-06 -0.14946237E-06  0.15758864E-06  0.45193119E-06
  0.73217633E-06  0.99707726E-06  0.12455314E-05  0.14765818E-05  0.16894168E-05
  0.18833701E-05  0.20579189E-05  0.22126816E-05  0.23474149E-05  0.24620099E-05
  0.25564877E-05  0.26309946E-05  0.26857958E-05  0.27212703E-05  0.27379034E-05
  0.27362801E-05  0.27170782E-05  0.26810600E-05  0.26290649E-05  0.25620012E-05
  0.24808385E-05  0.23865988E-05  0.22803486E-05  0.21631911E-05  0.20362575E-05
  0.19006996E-05  0.17576814E-05  0.16083721E-05  0.14539384E-05  0.12955376E-05
  0.11343108E-05  0.97137635E-06  0.80782397E-06  0.64470902E-06  0.48304724E-06
  0.32380992E-06  0.16791949E-06  0.16245619E-07 -0.13039834E-06 -0.27125835E-06
 -0.40564222E-06 -0.53292180E-06 -0.65253453E-06 -0.76398472E-06 -0.86684422E-06
 -0.96075283E-06 -0.10454181E-05 -0.11206149E-05 -0.11861845E-05 -0.12420333E-05
 -0.12881311E-05 -0.13245095E-05 -0.13512592E-05 -0.13685278E-05 -0.13765169E-05
 -0.13754790E-05 -0.13657145E-05 -0.13475678E-05 -0.13214246E-05 -0.12877071E-05
 -0.12468711E-05 -0.11994019E-05 -0.11458099E-05 -0.10866274E-05 -0.10224042E-05
 -0.95370348E-06 -0.88109854E-06 -0.80516844E-06 -0.72649448E-06 -0.64565657E-06
 -0.56322969E-06 -0.47978055E-06 -0.39586437E-06 -0.31202187E-06 -0.22877642E-06
 -0.14663135E-06 -0.66067541E-07  0.12458849E-07  0.88518378E-07  0.16171013E-06
  0.23166327E-06  0.29803841E-06  0.36052868E-06  0.41886062E-06  0.47279483E-06
  0.52212639E-06  0.56668506E-06  0.60633528E-06  0.64097592E-06  0.67053987E-06
  0.69499342E-06  0.71433548E-06  0.72859658E-06  0.73783776E-06  0.74214925E-06
  0.74164910E-06  0.73648159E-06  0.72681561E-06  0.71284283E-06  0.69477596E-06
  0.67284674E-06  0.64730402E-06  0.61841171E-06  0.58644675E-06  0.55169702E-06
  0.51445929E-06  0.47503712E-06  0.43373883E-06  0.39087547E-06  0.34675884E-06
  0.30169959E-06  0.25600533E-06  0.20997883E-06  0.16391635E-06  0.11810598E-06
  0.72826112E-07  0.28344059E-07 -0.15085315E-07 -0.57220776E-07 -0.97835811E-07
 -0.13671960E-06 -0.17367786E-06 -0.20853359E-06 -0.24112762E-06 -0.27131916E-06
 -0.29898608E-06 -0.32402518E-06 -0.34635229E-06 -0.36590226E-06 -0.38262882E-06
 -0.39650437E-06 -0.40751963E-06 -0.41568319E-06 -0.42102097E-06 -0.42357560E-06
 -0.42340570E-06 -0.42058512E-06 -0.41520203E-06 -0.40735803E-06 -0.39716715E-06
 -0.38475486E-06 -0.37025695E-06 -0.35381846E-06 -0.33559253E-06 -0.31573927E-06
 -0.29442458E-06 -0.27181901E-06 -0.24809657E-06 -0.22343358E-06 -0.19800757E-06
 -0.17199612E-06 -0.14557580E-06 -0.11892112E-06 -0.92203504E-07 -0.65590350E-07
 -0.39244089E-07 -0.13321336E-07  0.12027918E-07  0.36661050E-07  0.60443486E-07
  0.83249313E-07  0.10496183E-06  0.12547402E-06  0.14468895E-06  0.16252012E-06
  0.17889173E-06  0.19373885E-06  0.20700754E-06  0.21865494E-06  0.22864921E-06
  0.23696946E-06  0.24360563E-06  0.24855824E-06  0.25183816E-06  0.25346624E-06
  0.25347300E-06  0.25189815E-06  0.24879013E-06  0.24420564E-06  0.23820904E-06
  0.23087178E-06  0.22227183E-06  0.21249299E-06  0.20162429E-06  0.18975927E-06
  0.17699533E-06  0.16343306E-06  0.14917551E-06  0.13432750E-06  0.11899500E-06
  0.10328439E-06  0.87301825E-07  0.71152615E-07  0.54940571E-07  0.38767426E-07
  0.22732261E-07  0.69309653E-08 -0.85442741E-08 -0.23605444E-07 -0.38169144E-07
 -0.52156985E-07 -0.65495950E-07 -0.78118710E-07 -0.89963905E-07 -0.10097637E-06
 -0.11110735E-06 -0.12031460E-06 -0.12856254E-06 -0.13582230E-06 -0.14207174E-06
 -0.14729540E-06 -0.15148450E-06 -0.15463679E-06 -0.15675644E-06 -0.15785384E-06
 -0.15794544E-06 -0.15705345E-06 -0.15520564E-06 -0.15243499E-06 -0.14877940E-06
 -0.14428133E-06 -0.13898746E-06 -0.13294830E-06 -0.12621777E-06 -0.11885286E-06
 -0.11091312E-06 -0.10246035E-06 -0.93558078E-07 -0.84271183E-07 -0.74665465E-07
 -0.64807213E-07 -0.54762799E-07 -0.44598271E-07 -0.34378952E-07 -0.24169068E-07
 -0.14031371E-07 -0.40267988E-08  0.57858639E-08  0.15350291E-07  0.24612907E-07
  0.33523151E-07  0.42033720E-07  0.50100787E-07  0.57684189E-07  0.64747595E-07
  0.71258643E-07  0.77189051E-07  0.82514704E-07  0.87215705E-07  0.91276411E-07
  0.94685436E-07  0.97435627E-07  0.99524017E-07  0.10095176E-06  0.10172402E-06
  0.10184988E-06  0.10134218E-06  0.10021738E-06  0.98495344E-07  0.96199204E-07
  0.93355108E-07  0.89992014E-07  0.86141447E-07  0.81837263E-07  0.77115385E-07
  0.72013547E-07  0.66571023E-07  0.60828359E-07  0.54827098E-07  0.48609506E-07
  0.42218300E-07  0.35696383E-07  0.29086570E-07  0.22431340E-07  0.15772575E-07
  0.91513242E-08  0.26075668E-08 -0.38200068E-08 -0.10094205E-07 -0.16179531E-07
 -0.22042365E-07 -0.27651126E-07 -0.32976431E-07 -0.37991222E-07 -0.42670885E-07
 -0.46993356E-07 -0.50939194E-07 -0.54491656E-07 -0.57636740E-07 -0.60363215E-07
 -0.62662635E-07 -0.64529336E-07 -0.65960412E-07 -0.66955680E-07 -0.67517626E-07
 -0.67651338E-07 -0.67364423E-07 -0.66666909E-07 -0.65571139E-07 -0.64091649E-07
 -0.62245037E-07 -0.60049819E-07 -0.57526283E-07 -0.54696327E-07 -0.51583297E-07
 -0.48211815E-07 -0.44607604E-07 -0.40797313E-07 -0.36808333E-07 -0.32668620E-07
 -0.28406509E-07 -0.24050539E-07 -0.19629274E-07 -0.15171127E-07 -0.10704192E-07
 -0.62560784E-08 -0.18537533E-08  0.24766119E-08  0.67097840E-08  0.10821604E-07
  0.14789116E-07  0.18590677E-07  0.22206073E-07  0.25616608E-07  0.28805192E-07
  0.31756413E-07  0.34456600E-07  0.36893874E-07  0.39058185E-07  0.40941340E-07
  0.42537017E-07  0.43840770E-07  0.44850018E-07  0.45564030E-07  0.45983892E-07
  0.46112467E-07  0.45954346E-07  0.45515785E-07  0.44804639E-07  0.43830286E-07
  0.42603536E-07  0.41136545E-07  0.39442712E-07  0.37536578E-07  0.35433713E-07
  0.33150606E-07  0.30704547E-07  0.28113504E-07  0.25396006E-07  0.22571018E-07
  0.19657816E-07  0.16675867E-07  0.13644706E-07  0.10583816E-07  0.75125104E-08
  0.44498179E-08  0.14143732E-08 -0.15756900E-08 -0.45028401E-08 -0.73502436E-08
 -0.10101855E-07 -0.12742499E-07 -0.15257950E-07 -0.17634999E-07 -0.19861517E-07
 -0.21926510E-07 -0.23820165E-07 -0.25533888E-07 -0.27060336E-07 -0.28393441E-07
 -0.29528421E-07 -0.30461786E-07 -0.31191342E-07 -0.31716176E-07 -0.32036642E-07
 -0.32154335E-07 -0.32072061E-07 -0.31793798E-07 -0.31324651E-07 -0.30670803E-07
 -0.29839457E-07 -0.28838774E-07 -0.27677810E-07 -0.26366440E-07 -0.24915291E-07
 -0.23335657E-07 -0.21639423E-07 -0.19838984E-07 -0.17947155E-07 -0.15977093E-07
 -0.13942205E-07 -0.11856066E-07 -0.97323334E-08 -0.75846593E-08 -0.54266115E-08
 -0.32715902E-08 -0.11327500E-08  0.97707582E-09  0.30454482E-08  0.50603911E-08
  0.70104566E-08  0.88847852E-08  0.10673163E-07  0.12366070E-07  0.13954733E-07
  0.15431156E-07  0.16788168E-07  0.18019441E-07  0.19119523E-07  0.20083853E-07
  0.20908773E-07  0.21591540E-07  0.22130320E-07  0.22524191E-07  0.22773128E-07
  0.22877993E-07  0.22840514E-07  0.22663255E-07  0.22349595E-07  0.21903689E-07
  0.21330429E-07  0.20635407E-07  0.19824863E-07  0.18905643E-07  0.17885144E-07
  0.16771260E-07  0.15572326E-07  0.14297062E-07  0.12954510E-07  0.11553979E-07
  0.10104980E-07  0.86171650E-08  0.71002685E-08  0.55640451E-08  0.40182107E-08
  0.24723833E-08  0.93602694E-09 -0.58160398E-09 -0.20715173E-08 -0.35250337E-08
 -0.49338345E-08 -0.62900062E-08 -0.75860825E-08 -0.88150824E-08 -0.99705448E-08
 -0.11046560E-07 -0.12037796E-07 -0.12939522E-07 -0.13747630E-07 -0.14458645E-07
 -0.15069741E-07 -0.15578746E-07 -0.15984143E-07 -0.16285072E-07 -0.16481326E-07
 -0.16573335E-07 -0.16562162E-07 -0.16449481E-07 -0.16237560E-07 -0.15929236E-07
 -0.15527891E-07 -0.15037422E-07 -0.14462208E-07 -0.13807077E-07 -0.13077271E-07
 -0.12278407E-07 -0.11416434E-07 -0.10497597E-07 -0.95283896E-08 -0.85155144E-08
 -0.74658366E-08 -0.63863410E-08 -0.52840872E-08 -0.41661658E-08 -0.30396547E-08
 -0.19115761E-08 -0.78885498E-09  0.32172171E-09  0.14135442E-08  0.24802173E-08
  0.35155961E-08  0.45138196E-08  0.54693418E-08  0.63769610E-08  0.72318458E-08
  0.80295594E-08  0.87660800E-08  0.94378197E-08  0.10041639E-07  0.10574860E-07
  0.11035276E-07  0.11421155E-07  0.11731248E-07  0.11964785E-07  0.12121475E-07
  0.12201500E-07  0.12205505E-07  0.12134592E-07  0.11990302E-07  0.11774599E-07
  0.11489856E-07  0.11138831E-07  0.10724644E-07  0.10250757E-07  0.97209431E-08
  0.91392611E-08  0.85100269E-08  0.78377831E-08  0.71272681E-08  0.63833841E-08
  0.56111653E-08  0.48157455E-08  0.40023249E-08  0.31761379E-08  0.23424207E-08
  0.15063794E-08  0.67315902E-09 -0.15218735E-09 -0.96472751E-09 -0.17596786E-08
 -0.25324338E-08 -0.32785883E-08 -0.39939625E-08 -0.46746246E-08 -0.53169108E-08
 -0.59174439E-08 -0.64731493E-08 -0.69812700E-08 -0.74393782E-08 -0.78453856E-08
 -0.81975513E-08 -0.84944874E-08 -0.87351624E-08 -0.89189024E-08 -0.90453900E-08
 -0.91146613E-08 -0.91271009E-08 -0.90834340E-08 -0.89847179E-08 -0.88323302E-08
 -0.86279566E-08 -0.83735756E-08 -0.80714431E-08 -0.77240741E-08 -0.73342241E-08
 -0.69048691E-08 -0.64391841E-08 -0.59405214E-08 -0.54123874E-08 -0.48584191E-08
 -0.42823607E-08 -0.36880388E-08 -0.30793380E-08 -0.24601770E-08 -0.18344837E-08
 -0.12061717E-08 -0.57911610E-09  0.42868771E-10  0.65605229E-09  0.12568088E-08
  0.18416383E-08  0.24071859E-08  0.29502604E-08  0.34678511E-08  0.39571440E-08
  0.44155360E-08  0.48406479E-08  0.52303358E-08  0.55827008E-08  0.58960975E-08
  0.61691402E-08  0.64007080E-08  0.65899479E-08  0.67362766E-08  0.68393800E-08
  0.68992116E-08  0.69159895E-08  0.68901910E-08  0.68225465E-08  0.67140316E-08
  0.65658576E-08  0.63794615E-08  0.61564937E-08  0.58988056E-08  0.56084351E-08
  0.52875921E-08  0.49386427E-08  0.45640927E-08  0.41665705E-08  0.37488093E-08
  0.33136294E-08  0.28639200E-08  0.24026201E-08  0.19327006E-08  0.14571455E-08
  0.97893368E-09  0.50102093E-09  0.26322121E-10 -0.44230586E-09 -0.90208074E-09
 -0.13503108E-08 -0.17844099E-08 -0.22019122E-08 -0.26004851E-08 -0.29779420E-08
 -0.33322534E-08 -0.36615575E-08 -0.39641692E-08 -0.42385878E-08 -0.44835041E-08
 -0.46978057E-08 -0.48805809E-08 -0.50311224E-08 -0.51489280E-08 -0.52337017E-08
 -0.52853525E-08 -0.53039924E-08 -0.52899330E-08 -0.52436813E-08 -0.51659337E-08
 -0.50575696E-08 -0.49196436E-08 -0.47533768E-08 -0.45601474E-08 -0.43414802E-08
 -0.40990353E-08 -0.38345967E-08 -0.35500593E-08 -0.32474165E-08 -0.29287465E-08
 -0.25961985E-08 -0.22519792E-08 -0.18983383E-08 -0.15375541E-08 -0.11719198E-08
 -0.80372901E-09 -0.43526183E-09 -0.68771288E-10  0.29353009E-09  0.64948322E-09
  0.99699488E-09  0.13340496E-08  0.16587211E-08  0.19691825E-08  0.22637165E-08
  0.25407244E-08  0.27987343E-08  0.30364084E-08  0.32525494E-08  0.34461062E-08
  0.36161785E-08  0.37620201E-08  0.38830416E-08  0.39788125E-08  0.40490610E-08
  0.40936745E-08  0.41126978E-08  0.41063309E-08  0.40749263E-08  0.40189843E-08
  0.39391488E-08  0.38362010E-08  0.37110537E-08  0.35647432E-08  0.33984222E-08
  0.32133513E-08  0.30108896E-08  0.27924854E-08  0.25596668E-08  0.23140306E-08
  0.20572324E-08  0.17909754E-08  0.15169998E-08  0.12370716E-08  0.95297150E-09
  0.66648409E-09  0.37938674E-09  0.93438987E-10 -0.18962793E-09 -0.46812127E-09
 -0.74039665E-09 -0.10048674E-08 -0.12600135E-08 -0.15043901E-08 -0.17366354E-08
 -0.19554777E-08 -0.21597424E-08 -0.23483577E-08 -0.25203599E-08 -0.26748982E-08
 kinetic energy density (partial)
  0.66490377E+02  0.66469609E+02  0.66407343E+02  0.66303684E+02  0.66158812E+02
  0.65972974E+02  0.65746488E+02  0.65479742E+02  0.65173192E+02  0.64827358E+02
  0.64442829E+02  0.64020254E+02  0.63560348E+02  0.63063882E+02  0.62531689E+02
  0.61964654E+02  0.61363719E+02  0.60729875E+02  0.60064162E+02  0.59367665E+02
  0.58641514E+02  0.57886877E+02  0.57104960E+02  0.56297005E+02  0.55464281E+02
  0.54608089E+02  0.53729751E+02  0.52830614E+02  0.51912041E+02  0.50975412E+02
  0.50022115E+02  0.49053551E+02  0.48071124E+02  0.47076240E+02  0.46070306E+02
  0.45054723E+02  0.44030885E+02  0.43000178E+02  0.41963973E+02  0.40923626E+02
  0.39880476E+02  0.38835839E+02  0.37791008E+02  0.36747251E+02  0.35705807E+02
  0.34667886E+02  0.33634664E+02  0.32607284E+02  0.31586853E+02  0.30574438E+02
  0.29571071E+02  0.28577740E+02  0.27595394E+02  0.26624935E+02  0.25667226E+02
  0.24723082E+02  0.23793275E+02  0.22878529E+02  0.21979524E+02  0.21096891E+02
  0.20231217E+02  0.19383040E+02  0.18552853E+02  0.17741101E+02  0.16948185E+02
  0.16174460E+02  0.15420235E+02  0.14685774E+02  0.13971300E+02  0.13276990E+02
  0.12602983E+02  0.11949375E+02  0.11316221E+02  0.10703540E+02  0.10111312E+02
  0.95394826E+01  0.89879614E+01  0.84566250E+01  0.79453185E+01  0.74538563E+01
  0.69820240E+01  0.65295798E+01  0.60962563E+01  0.56817615E+01  0.52857810E+01
  0.49079792E+01  0.45480008E+01  0.42054726E+01  0.38800050E+01  0.35711936E+01
  0.32786203E+01  0.30018556E+01  0.27404591E+01  0.24939818E+01  0.22619670E+01
  0.20439520E+01  0.18394691E+01  0.16480473E+01  0.14692130E+01  0.13024918E+01
  0.11474095E+01  0.10034928E+01  0.87027106E+00  0.74727669E+00  0.63404647E+00
  0.53012237E+00  0.43505236E+00  0.34839127E+00  0.26970152E+00  0.19855380E+00
  0.13452771E+00  0.77212375E-01  0.26206947E-01 -0.18878906E-01 -0.58424565E-01
 -0.92798091E-01 -0.12235589E+00 -0.14744243E+00 -0.16839002E+00 -0.18551862E+00
 -0.19913569E+00 -0.20953608E+00 -0.21700202E+00 -0.22180303E+00 -0.22419601E+00
 -0.22442522E+00 -0.22272243E+00 -0.21930701E+00 -0.21438608E+00 -0.20815472E+00
 -0.20079611E+00 -0.19248183E+00 -0.18337205E+00 -0.17361587E+00 -0.16335154E+00
 -0.15270681E+00 -0.14179925E+00 -0.13073658E+00 -0.11961701E+00 -0.10852960E+00
 -0.97554646E-01 -0.86764028E-01 -0.76221593E-01 -0.65983538E-01 -0.56098792E-01
 -0.46609397E-01 -0.37550891E-01 -0.28952687E-01 -0.20838451E-01 -0.13226476E-01
 -0.61300442E-02  0.44220689E-03  0.64859331E-02  0.12000738E-01  0.16989834E-01
  0.21459718E-01  0.25419851E-01  0.28882354E-01  0.31861710E-01  0.34374481E-01
  0.36439038E-01  0.38075297E-01  0.39304474E-01  0.40148851E-01  0.40631553E-01
  0.40776337E-01  0.40607399E-01  0.40149188E-01  0.39426235E-01  0.38462999E-01
  0.37283714E-01  0.35912263E-01  0.34372049E-01  0.32685892E-01  0.30875928E-01
  0.28963520E-01  0.26969183E-01  0.24912519E-01  0.22812160E-01  0.20685719E-01
  0.18549758E-01  0.16419754E-01  0.14310081E-01  0.12233997E-01  0.10203638E-01
  0.82300203E-02  0.63230483E-02  0.44915271E-02  0.27431825E-02  0.10846854E-02
 -0.47832049E-03 -0.19411849E-02 -0.33002155E-02 -0.45526377E-02 -0.56965529E-02
 -0.67308934E-02 -0.76553760E-02 -0.84704535E-02 -0.91772656E-02 -0.97775880E-02
 -0.10273782E-01 -0.10668743E-01 -0.10965850E-01 -0.11168914E-01 -0.11282127E-01
 -0.11310015E-01 -0.11257389E-01 -0.11129297E-01 -0.10930977E-01 -0.10667817E-01
 -0.10345310E-01 -0.99690136E-02 -0.95445129E-02 -0.90773830E-02 -0.85731557E-02
 -0.80372873E-02 -0.74751294E-02 -0.68919012E-02 -0.62926649E-02 -0.56823031E-02
 -0.50654985E-02 -0.44467164E-02 -0.38301887E-02 -0.32199007E-02 -0.26195802E-02
 -0.20326883E-02 -0.14624127E-02 -0.91166254E-03 -0.38306584E-03  0.12103194E-03
  0.59856711E-03  0.10477556E-02  0.14670890E-02  0.18553294E-02  0.22115029E-02
  0.25348917E-02  0.28250250E-02  0.30816694E-02  0.33048178E-02  0.34946780E-02
  0.36516601E-02  0.37763640E-02  0.38695657E-02  0.39322038E-02  0.39653654E-02
  0.39702718E-02  0.39482645E-02  0.39007908E-02  0.38293896E-02  0.37356772E-02
  0.36213338E-02  0.34880897E-02  0.33377124E-02  0.31719938E-02  0.29927377E-02
  0.28017485E-02  0.26008195E-02  0.23917228E-02  0.21761992E-02  0.19559489E-02
  0.17326229E-02  0.15078149E-02  0.12830547E-02  0.10598011E-02  0.83943653E-03
  0.62326199E-03  0.41249268E-03  0.20825449E-03  0.11581089E-04 -0.17658824E-03
 -0.35541016E-03 -0.52413809E-03 -0.68212257E-03 -0.82881083E-03 -0.96374593E-03
 -0.10865653E-02 -0.11969990E-02 -0.12948668E-02 -0.13800759E-02 -0.14526176E-02
 -0.15125632E-02 -0.15600606E-02 -0.15953301E-02 -0.16186595E-02 -0.16303997E-02
 -0.16309599E-02 -0.16208025E-02 -0.16004379E-02 -0.15704195E-02 -0.15313383E-02
 -0.14838179E-02 -0.14285092E-02 -0.13660851E-02 -0.12972355E-02 -0.12226628E-02
 -0.11430763E-02 -0.10591880E-02 -0.97170825E-03 -0.88134100E-03 -0.78878007E-03
 -0.69470516E-03 -0.59977828E-03 -0.50464035E-03 -0.40990815E-03 -0.31617145E-03
 -0.22399049E-03 -0.13389367E-03 -0.46375621E-04  0.38104571E-04  0.11912474E-03
  0.19630083E-03  0.26928771E-03  0.33777985E-03  0.40151162E-03  0.46025737E-03
  0.51383132E-03  0.56208712E-03  0.60491729E-03  0.64225234E-03  0.67405982E-03
  0.70034304E-03  0.72113976E-03  0.73652063E-03  0.74658752E-03  0.75147175E-03
  0.75133216E-03  0.74635310E-03  0.73674241E-03  0.72272922E-03  0.70456176E-03
  0.68250517E-03  0.65683925E-03  0.62785617E-03  0.59585826E-03  0.56115577E-03
  0.52406471E-03  0.48490465E-03  0.44399670E-03  0.40166141E-03  0.35821689E-03
  0.31397692E-03  0.26924914E-03  0.22433347E-03  0.17952046E-03  0.13508987E-03
  0.91309358E-04  0.48433211E-04  0.67012956E-05 -0.33661932E-04 -0.72448260E-04
 -0.10946644E-03 -0.14454277E-03 -0.17752156E-03 -0.20826546E-03 -0.23665568E-03
 -0.26259211E-03 -0.28599326E-03 -0.30679612E-03 -0.32495599E-03 -0.34044606E-03
 -0.35325702E-03 -0.36339652E-03 -0.37088855E-03 -0.37577275E-03 -0.37810366E-03
 -0.37794986E-03 -0.37539314E-03 -0.37052752E-03 -0.36345829E-03 -0.35430097E-03
 -0.34318034E-03 -0.33022928E-03 -0.31558777E-03 -0.29940175E-03 -0.28182209E-03
 -0.26300343E-03 -0.24310320E-03 -0.22228051E-03 -0.20069513E-03 -0.17850652E-03
 -0.15587281E-03 -0.13294995E-03 -0.10989075E-03 -0.86844093E-04 -0.63954133E-04
 -0.41359554E-04 -0.19192906E-04  0.24200272E-05  0.23360775E-04  0.43518687E-04
  0.62791360E-04  0.81085017E-04  0.98314809E-04  0.11440506E-03  0.12928946E-03
  0.14291117E-03  0.15522287E-03  0.16618681E-03  0.17577469E-03  0.18396757E-03
  0.19075573E-03  0.19613840E-03  0.20012356E-03  0.20272755E-03  0.20397481E-03
  0.20389741E-03  0.20253468E-03  0.19993274E-03  0.19614398E-03  0.19122664E-03
  0.18524419E-03  0.17826485E-03  0.17036100E-03  0.16160865E-03  0.15208683E-03
  0.14187706E-03  0.13106273E-03  0.11972859E-03  0.10796017E-03  0.95843223E-04
  0.83463210E-04  0.70904783E-04  0.58251292E-04  0.45584310E-04  0.32983188E-04
  0.20524632E-04  0.82823106E-05 -0.36735102E-05 -0.15276300E-04 -0.26463565E-04
 -0.37177116E-04 -0.47363305E-04 -0.56973224E-04 -0.65962875E-04 -0.74293297E-04
 -0.81930670E-04 -0.88846375E-04 -0.95017029E-04 -0.10042448E-03 -0.10505578E-03
 -0.10890312E-03 -0.11196371E-03 -0.11423973E-03 -0.11573810E-03 -0.11647036E-03
 -0.11645245E-03 -0.11570452E-03 -0.11425066E-03 -0.11211867E-03 -0.10933980E-03
 -0.10594843E-03 -0.10198181E-03 -0.97479751E-04 -0.92484298E-04 -0.87039429E-04
 -0.81190734E-04 -0.74985086E-04 -0.68470332E-04 -0.61694967E-04 -0.54707827E-04
 -0.47557777E-04 -0.40293417E-04 -0.32962789E-04 -0.25613102E-04 -0.18290461E-04
 -0.11039618E-04 -0.39037321E-05  0.30758513E-05  0.98598068E-05  0.16411017E-04
  0.22694743E-04  0.28678773E-04  0.34333558E-04  0.39632321E-04  0.44551152E-04
  0.49069080E-04  0.53168127E-04  0.56833342E-04  0.60052817E-04  0.62817683E-04
  0.65122084E-04  0.66963143E-04  0.68340904E-04  0.69258255E-04  0.69720845E-04
  0.69736976E-04  0.69317492E-04  0.68475645E-04  0.67226960E-04  0.65589080E-04
  0.63581608E-04  0.61225940E-04  0.58545093E-04  0.55563518E-04  0.52306926E-04
  0.48802090E-04  0.45076666E-04  0.41158997E-04  0.37077924E-04  0.32862601E-04
  0.28542308E-04  0.24146269E-04  0.19703477E-04  0.15242522E-04  0.10791425E-04
  0.63774824E-05  0.20271177E-05 -0.22342611E-05 -0.63823910E-05 -0.10394275E-04
 -0.14248292E-04 -0.17924297E-04 -0.21403709E-04 -0.24669586E-04 -0.27706694E-04
 -0.30501554E-04 -0.33042488E-04 -0.35319646E-04 -0.37325026E-04 -0.39052477E-04
 -0.40497694E-04 -0.41658204E-04 -0.42533338E-04 -0.43124191E-04 -0.43433578E-04
 -0.43465978E-04 -0.43227465E-04 -0.42725637E-04 -0.41969537E-04 -0.40969560E-04
 -0.39737363E-04 -0.38285765E-04 -0.36628642E-04 -0.34780818E-04 -0.32757955E-04
 -0.30576436E-04 -0.28253253E-04 -0.25805887E-04 -0.23252191E-04 -0.20610274E-04
 -0.17898384E-04 -0.15134794E-04 -0.12337692E-04 -0.95250671E-05 -0.67146108E-05
 -0.39236113E-05 -0.11688587E-05  0.15334465E-05  0.41677791E-05  0.67193691E-05
  0.91742751E-05  0.11519451E-04  0.13742806E-04  0.15833258E-04  0.17780778E-04
  0.19576429E-04  0.21212399E-04  0.22682019E-04  0.23979785E-04  0.25101363E-04
  0.26043589E-04  0.26804469E-04  0.27383159E-04  0.27779952E-04  0.27996245E-04
  0.28034515E-04  0.27898275E-04  0.27592033E-04  0.27121244E-04  0.26492255E-04
  0.25712249E-04  0.24789182E-04  0.23731723E-04  0.22549179E-04  0.21251431E-04
  0.19848859E-04  0.18352271E-04  0.16772823E-04  0.15121951E-04  0.13411288E-04
  0.11652597E-04  0.98576908E-05  0.80383598E-05  0.62063037E-05  0.43730596E-05
  0.25499358E-05  0.74794778E-06 -0.10222430E-05 -0.27503868E-05 -0.44266994E-05
 -0.60419124E-05 -0.75873190E-05 -0.90548159E-05 -0.10436940E-04 -0.11726901E-04
 -0.12918609E-04 -0.14006698E-04 -0.14986544E-04 -0.15854277E-04 -0.16606792E-04
 -0.17241749E-04 -0.17757574E-04 -0.18153456E-04 -0.18429330E-04 -0.18585869E-04
 -0.18624463E-04 -0.18547195E-04 -0.18356817E-04 -0.18056716E-04 -0.17650887E-04
 -0.17143892E-04 -0.16540822E-04 -0.15847257E-04 -0.15069221E-04 -0.14213138E-04
 -0.13285783E-04 -0.12294238E-04 -0.11245836E-04 -0.10148120E-04 -0.90087861E-05
 -0.78356373E-05 -0.66365330E-05 -0.54193398E-05 -0.41918841E-05 -0.29619049E-05
 -0.17370083E-05 -0.52462401E-06  0.66803661E-06  0.18340203E-05  0.29666690E-05
  0.40596553E-05  0.51070141E-05  0.61031722E-05  0.70429748E-05  0.79217093E-05
  0.87351247E-05  0.94794499E-05  0.10151407E-04  0.10748221E-04  0.11267629E-04
  0.11707885E-04  0.12067757E-04  0.12346528E-04  0.12543991E-04  0.12660440E-04
  0.12696657E-04  0.12653902E-04  0.12533893E-04  0.12338789E-04  0.12071167E-04
  0.11734002E-04  0.11330638E-04  0.10864761E-04  0.10340375E-04  0.97617641E-05
  0.91334687E-05  0.84602484E-05  0.77470511E-05  0.69989790E-05  0.62212546E-05
  0.54191870E-05  0.45981380E-05  0.37634883E-05  0.29206047E-05  0.20748076E-05
  0.12313392E-05  0.39533361E-06 -0.42821295E-06 -0.12344699E-05 -0.20187986E-05
 -0.27767773E-05 -0.35042242E-05 -0.41972183E-05 -0.48521189E-05 -0.54655826E-05
 -0.60345787E-05 -0.65564013E-05 -0.70286809E-05 -0.74493924E-05 -0.78168611E-05
 -0.81297674E-05 -0.83871480E-05 -0.85883957E-05 -0.87332566E-05 -0.88218260E-05
 -0.88545411E-05 -0.88321728E-05 -0.87558147E-05 -0.86268715E-05 -0.84470445E-05
 -0.82183161E-05 -0.79429333E-05 -0.76233891E-05 -0.72624029E-05 -0.68629006E-05
 -0.64279928E-05 -0.59609529E-05 -0.54651941E-05 -0.49442468E-05 -0.44017344E-05
 -0.38413504E-05 -0.32668341E-05 -0.26819475E-05 -0.20904518E-05 -0.14960846E-05
 -0.90253775E-06 -0.31343535E-06  0.26768692E-06  0.83740189E-06  0.13924099E-05
  0.19295566E-05  0.24458499E-05  0.29384752E-05  0.34048099E-05  0.38424355E-05
  0.42491495E-05  0.46229748E-05  0.49621682E-05  0.52652269E-05  0.55308937E-05
  0.57581605E-05  0.59462705E-05  0.60947184E-05  0.62032494E-05  0.62718564E-05
  0.63007764E-05  0.62904846E-05  0.62416877E-05  0.61553159E-05  0.60325134E-05
  0.58746280E-05  0.56831997E-05  0.54599480E-05  0.52067585E-05  0.49256689E-05
  0.46188537E-05  0.42886095E-05  0.39373383E-05  0.35675316E-05  0.31817536E-05
  0.27826245E-05  0.23728038E-05  0.19549733E-05  0.15318203E-05  0.11060217E-05
  0.68022716E-06  0.25704412E-06 -0.16097782E-06 -0.57136135E-06 -0.97171532E-06
 -0.13597480E-05 -0.17332792E-05 -0.20902521E-05 -0.24287436E-05 -0.27469738E-05
 -0.30433146E-05 -0.33162974E-05 -0.35646192E-05 -0.37871482E-05 -0.39829277E-05
 -0.41511792E-05 -0.42913046E-05 -0.44028867E-05 -0.44856890E-05 -0.45396543E-05
 -0.45649023E-05 -0.45617258E-05 -0.45305869E-05 -0.44721106E-05 -0.43870792E-05
 -0.42764250E-05 -0.41412218E-05 -0.39826768E-05 -0.38021209E-05 -0.36009984E-05
 -0.33808571E-05 -0.31433369E-05 -0.28901582E-05 -0.26231109E-05 -0.23440416E-05
 -0.20548421E-05 -0.17574370E-05 -0.14537714E-05 -0.11457990E-05 -0.83546985E-06
 -0.52471872E-06 -0.21545343E-06  0.90456252E-07  0.39118941E-06  0.68498434E-06
  0.97014833E-06  0.12450669E-05  0.15082126E-05  0.17581526E-05  0.19935564E-05
  0.22132021E-05  0.24159824E-05  0.26009092E-05  0.27671186E-05  0.29138733E-05
  0.30405659E-05  0.31467205E-05  0.32319935E-05  0.32961738E-05  0.33391819E-05
  0.33610689E-05  0.33620138E-05  0.33423205E-05  0.33024146E-05  0.32428385E-05
  0.31642465E-05  0.30673992E-05  0.29531574E-05  0.28224754E-05  0.26763935E-05
  0.25160308E-05  0.23425769E-05  0.21572841E-05  0.19614582E-05  0.17564505E-05
  0.15436484E-05  0.13244665E-05  0.11003379E-05  0.87270498E-06  0.64301047E-06
  0.41268878E-06  0.18315738E-06 -0.44191623E-07 -0.26799953E-06 -0.48694886E-06
 -0.69977075E-06 -0.90525197E-06 -0.11022415E-05 -0.12896566E-05 -0.14664886E-05
 -0.16318075E-05 -0.17847672E-05 -0.19246087E-05 -0.20506641E-05 -0.21623589E-05
 -0.22592144E-05 -0.23408493E-05 -0.24069802E-05 -0.24574226E-05 -0.24920900E-05
 -0.25109936E-05 -0.25142402E-05 -0.25020308E-05 -0.24746577E-05 -0.24325015E-05
 -0.23760276E-05 -0.23057822E-05 -0.22223876E-05 -0.21265378E-05 -0.20189928E-05
 -0.19005733E-05 -0.17721549E-05 -0.16346618E-05 -0.14890606E-05 -0.13363542E-05
 -0.11775744E-05 -0.10137760E-05 -0.84602966E-06 -0.67541515E-06 -0.50301491E-06
 -0.32990721E-06 -0.15715978E-06  0.14176629E-07  0.18307432E-06  0.34853465E-06
  0.50959362E-06  0.66532736E-06  0.81485711E-06  0.95735397E-06  0.10920433E-05
  0.12182085E-05  0.13351950E-05  0.14424129E-05  0.15393398E-05  0.16255234E-05
  0.17005829E-05  0.17642104E-05  0.18161720E-05  0.18563079E-05  0.18845328E-05
  0.19008350E-05  0.19052755E-05  0.18979870E-05  0.18791718E-05  0.18490998E-05
  0.18081057E-05  0.17565864E-05  0.16949976E-05  0.16238504E-05  0.15437071E-05
  0.14551773E-05  0.13589139E-05  0.12556078E-05  0.11459838E-05  0.10307957E-05
  0.91082091E-06  0.78685587E-06  0.65971072E-06  0.53020423E-06  0.39915873E-06
  0.26739507E-06  0.13572760E-06  0.49593696E-08 -0.12412266E-06 -0.25075215E-06
 -0.37418780E-06 -0.49371750E-06 -0.60866229E-06 -0.71838008E-06 -0.82226899E-06
 -0.91977059E-06 -0.10103726E-05 -0.10936116E-05 -0.11690749E-05 -0.12364027E-05
 -0.12952895E-05 -0.13454850E-05 -0.13867953E-05 -0.14190831E-05 -0.14422679E-05
 -0.14563256E-05 -0.14612882E-05 -0.14572425E-05 -0.14443292E-05 -0.14227413E-05
 -0.13927220E-05 -0.13545629E-05 -0.13086013E-05 -0.12552178E-05 -0.11948334E-05
 -0.11279064E-05 -0.10549288E-05 -0.97642361E-06 -0.89294055E-06 -0.80505278E-06
 -0.71335298E-06 -0.61844952E-06 -0.52096255E-06 -0.42152010E-06 -0.32075416E-06
 -0.21929676E-06 -0.11777615E-06 -0.16813049E-07  0.82983092E-07  0.18101760E-06
  0.27671404E-06  0.36951745E-06  0.45889752E-06  0.54435141E-06  0.62540653E-06
  0.70162304E-06  0.77259604E-06  0.83795767E-06  0.89737885E-06  0.95057081E-06
  0.99728631E-06  0.10373207E-05  0.10705124E-05  0.10967439E-05  0.11159412E-05
  0.11280741E-05  0.11331561E-05  0.11312432E-05  0.11224334E-05  0.11068657E-05
  0.10847182E-05  0.10562071E-05  0.10215848E-05  0.98113768E-06  0.93518408E-06
  0.88407205E-06  0.82817676E-06  0.76789793E-06  0.70365711E-06  0.63589481E-06
  0.56506762E-06  0.49164524E-06  0.41610744E-06  0.33894104E-06  0.26063687E-06
  0.18168671E-06  0.10258032E-06  0.23802458E-07 -0.54169981E-07 -0.13087079E-06
 -0.20584713E-06 -0.27866216E-06 -0.34889746E-06 -0.41615538E-06 -0.48006117E-06
 -0.54026505E-06 -0.59644397E-06 -0.64830327E-06 -0.69557817E-06 -0.73803495E-06
 atomic pseudo charge-density
  0.70000000E+01  0.69882698E+01  0.69532191E+01  0.68952640E+01  0.68150861E+01
  0.67136145E+01  0.65920030E+01  0.64516013E+01  0.62939236E+01  0.61206145E+01
  0.59334143E+01  0.57341240E+01  0.55245724E+01  0.53065848E+01  0.50819556E+01
  0.48524233E+01  0.46196503E+01  0.43852056E+01  0.41505527E+01  0.39170391E+01
  0.36858914E+01  0.34582117E+01  0.32349772E+01  0.30170425E+01  0.28051426E+01
  0.25998981E+01  0.24018216E+01  0.22113244E+01  0.20287236E+01  0.18542502E+01
  0.16880567E+01  0.15302247E+01  0.13807723E+01  0.12396615E+01  0.11068050E+01
  0.98207260E+00  0.86529721E+00  0.75628053E+00  0.65479813E+00  0.56060420E+00
  0.47343577E+00  0.39301665E+00  0.31906086E+00  0.25127575E+00  0.18936477E+00
  0.13302989E+00  0.81973734E-01  0.35901467E-01 -0.54776388E-02 -0.42448814E-01
 -0.75290640E-01 -0.10427409E+00 -0.12966172E+00 -0.15170707E+00 -0.17065415E+00
 -0.18673707E+00 -0.20017981E+00 -0.21119606E+00 -0.21998912E+00 -0.22675196E+00
 -0.23166727E+00 -0.23490758E+00 -0.23663547E+00 -0.23700376E+00 -0.23615577E+00
 -0.23422563E+00 -0.23133855E+00 -0.22761114E+00 -0.22315177E+00 -0.21806090E+00
 -0.21243141E+00 -0.20634898E+00 -0.19989241E+00 -0.19313398E+00 -0.18613978E+00
 -0.17897009E+00 -0.17167964E+00 -0.16431799E+00 -0.15692981E+00 -0.14955520E+00
 -0.14222995E+00 -0.13498586E+00 -0.12785099E+00 -0.12084992E+00 -0.11400398E+00
 -0.10733153E+00 -0.10084814E+00 -0.94566817E-01 -0.88498222E-01 -0.82650848E-01
 -0.77031205E-01 -0.71643996E-01 -0.66492275E-01 -0.61577603E-01 -0.56900188E-01
 -0.52459029E-01 -0.48252032E-01 -0.44276139E-01 -0.40527433E-01 -0.37001243E-01
 -0.33692245E-01 -0.30594549E-01 -0.27701781E-01 -0.25007167E-01 -0.22503600E-01
 -0.20183708E-01 -0.18039915E-01 -0.16064500E-01 -0.14249646E-01 -0.12587486E-01
 -0.11070151E-01 -0.96898053E-02 -0.84386810E-02 -0.73091130E-02 -0.62935651E-02
 -0.53846560E-02 -0.45751813E-02 -0.38581329E-02 -0.32267160E-02 -0.26743635E-02
 -0.21947476E-02 -0.17817903E-02 -0.14296709E-02 -0.11328323E-02 -0.88598480E-03
 -0.68410936E-03 -0.52245838E-03 -0.39655568E-03 -0.30219497E-03 -0.23543730E-03
 -0.19260736E-03 -0.17028887E-03 -0.16531913E-03 -0.17478272E-03 -0.19600461E-03
 -0.22654260E-03 -0.26417923E-03 -0.30691329E-03 -0.35295087E-03 -0.40069616E-03
 -0.44874198E-03 -0.49586007E-03 -0.54099132E-03 -0.58323584E-03 -0.62184305E-03
 -0.65620178E-03 -0.68583040E-03 -0.71036707E-03 -0.72956012E-03 -0.74325863E-03
 -0.75140318E-03 -0.75401686E-03 -0.75119653E-03 -0.74310436E-03 -0.72995973E-03
 -0.71203140E-03 -0.68963004E-03 -0.66310114E-03 -0.63281829E-03 -0.59917679E-03
 -0.56258774E-03 -0.52347244E-03 -0.48225724E-03 -0.43936873E-03 -0.39522942E-03
 -0.35025371E-03 -0.30484432E-03 -0.25938909E-03 -0.21425813E-03 -0.16980136E-03
 -0.12634642E-03 -0.84196901E-04 -0.43630888E-04 -0.48998898E-05  0.31771987E-04
  0.66188550E-04  0.98181771E-04  0.12761177E-03  0.15436655E-03  0.17836157E-03
  0.19953901E-03  0.21786697E-03  0.23333840E-03  0.24596993E-03  0.25580059E-03
  0.26289036E-03  0.26731868E-03  0.26918282E-03  0.26859626E-03  0.26568696E-03
  0.26059566E-03  0.25347408E-03  0.24448321E-03  0.23379158E-03  0.22157350E-03
  0.20800745E-03  0.19327440E-03  0.17755623E-03  0.16103430E-03  0.14388794E-03
  0.12629315E-03  0.10842134E-03  0.90438139E-04  0.72502365E-04  0.54765041E-04
  0.37368544E-04  0.20445852E-04  0.41199038E-05 -0.11496942E-04 -0.26303332E-04
 -0.40209246E-04 -0.53136217E-04 -0.65017448E-04 -0.75797841E-04 -0.85433924E-04
 -0.93893696E-04 -0.10115638E-03 -0.10721211E-03 -0.11206155E-03 -0.11571539E-03
 -0.11819388E-03 -0.11952626E-03 -0.11975008E-03 -0.11891060E-03 -0.11706008E-03
 -0.11425705E-03 -0.11056559E-03 -0.10605455E-03 -0.10079682E-03 -0.94868531E-04
 -0.88348333E-04 -0.81316629E-04 -0.73854848E-04 -0.66044736E-04 -0.57967669E-04
 -0.49704001E-04 -0.41332441E-04 -0.32929475E-04 -0.24568816E-04 -0.16320911E-04
 -0.82524868E-05 -0.42614002E-06  0.71000160E-05  0.14272660E-04  0.21043522E-04
  0.27369584E-04  0.33213243E-04  0.38542413E-04  0.43330584E-04  0.47556834E-04
  0.51205790E-04  0.54267551E-04  0.56737570E-04  0.58616487E-04  0.59909940E-04
  0.60628329E-04  0.60786562E-04  0.60403758E-04  0.59502945E-04  0.58110719E-04
  0.56256898E-04  0.53974156E-04  0.51297648E-04  0.48264631E-04  0.44914071E-04
  0.41286266E-04  0.37422454E-04  0.33364438E-04  0.29154215E-04  0.24833619E-04
  0.20443972E-04  0.16025757E-04  0.11618307E-04  0.72595106E-05  0.29855476E-05
 -0.11693616E-05 -0.51731765E-05 -0.89962326E-05 -0.12611412E-04 -0.15994287E-04
 -0.19123236E-04 -0.21979533E-04 -0.24547411E-04 -0.26814096E-04 -0.28769819E-04
 -0.30407795E-04 -0.31724191E-04 -0.32718056E-04 -0.33391239E-04 -0.33748284E-04
 -0.33796299E-04 -0.33544822E-04 -0.33005656E-04 -0.32192700E-04 -0.31121766E-04
 -0.29810378E-04 -0.28277578E-04 -0.26543710E-04 -0.24630210E-04 -0.22559388E-04
 -0.20354213E-04 -0.18038094E-04 -0.15634672E-04 -0.13167607E-04 -0.10660380E-04
 -0.81360948E-05 -0.56172959E-05 -0.31257916E-05 -0.68249108E-06  0.16927470E-05
  0.39812521E-05  0.61656654E-05  0.82300487E-05  0.10159978E-04  0.11942623E-04
  0.13566806E-04  0.15023051E-04  0.16303617E-04  0.17402507E-04  0.18315474E-04
  0.19040001E-04  0.19575278E-04  0.19922153E-04  0.20083083E-04  0.20062060E-04
  0.19864538E-04  0.19497341E-04  0.18968566E-04  0.18287480E-04  0.17464400E-04
  0.16510583E-04  0.15438098E-04  0.14259698E-04  0.12988698E-04  0.11638836E-04
  0.10224151E-04  0.87588466E-05  0.72571716E-05  0.57332912E-05  0.42011689E-05
  0.26744524E-05  0.11663644E-05 -0.31039939E-06 -0.17437649E-05 -0.31223670E-05
 -0.44356279E-05 -0.56738265E-05 -0.68281593E-05 -0.78907914E-05 -0.88548974E-05
 -0.97146937E-05 -0.10465460E-04 -0.11103550E-04 -0.11626398E-04 -0.12032508E-04
 -0.12321441E-04 -0.12493789E-04 -0.12551142E-04 -0.12496050E-04 -0.12331976E-04
 -0.12063238E-04 -0.11694953E-04 -0.11232971E-04 -0.10683805E-04 -0.10054556E-04
 -0.93528391E-05 -0.85867017E-05 -0.77645442E-05 -0.68950374E-05 -0.59870410E-05
 -0.50495214E-05 -0.40914720E-05 -0.31218342E-05 -0.21494212E-05 -0.11828452E-05
 -0.23044785E-06  0.69976552E-06  0.16001864E-05  0.24636591E-05  0.32835315E-05
  0.40537002E-05  0.47686491E-05  0.54234832E-05  0.60139552E-05  0.65364862E-05
  0.69881802E-05  0.73668321E-05  0.76709301E-05  0.78996511E-05  0.80528513E-05
  0.81310502E-05  0.81354105E-05  0.80677115E-05  0.79303188E-05  0.77261494E-05
  0.74586329E-05  0.71316692E-05  0.67495829E-05  0.63170757E-05  0.58391763E-05
  0.53211886E-05  0.47686390E-05  0.41872231E-05  0.35827517E-05  0.29610979E-05
  0.23281441E-05  0.16897308E-05  0.10516067E-05  0.41938072E-06 -0.20152326E-06
 -0.80590958E-06 -0.13888505E-05 -0.19457226E-05 -0.24722404E-05 -0.29644852E-05
 -0.34189308E-05 -0.38324651E-05 -0.42024075E-05 -0.45265221E-05 -0.48030268E-05
 -0.50305983E-05 -0.52083730E-05 -0.53359437E-05 -0.54133529E-05 -0.54410815E-05
 -0.54200350E-05 -0.53515253E-05 -0.52372503E-05 -0.50792699E-05 -0.48799802E-05
 -0.46420840E-05 -0.43685610E-05 -0.40626352E-05 -0.37277409E-05 -0.33674884E-05
 -0.29856281E-05 -0.25860146E-05 -0.21725710E-05 -0.17492526E-05 -0.13200121E-05
 -0.88876451E-06 -0.45935454E-06 -0.35524016E-07  0.37911825E-06  0.78112510E-06
  0.11672375E-05  0.15344088E-05  0.18798267E-05  0.22009326E-05  0.24954382E-05
  0.27613396E-05  0.29969284E-05  0.32008004E-05  0.33718608E-05  0.35093271E-05
  0.36127288E-05  0.36819051E-05  0.37169991E-05  0.37184502E-05  0.36869833E-05
  0.36235965E-05  0.35295465E-05  0.34063318E-05  0.32556740E-05  0.30794985E-05
  0.28799127E-05  0.26591840E-05  0.24197161E-05  0.21640250E-05  0.18947151E-05
  0.16144539E-05  0.13259475E-05  0.10319160E-05  0.73506962E-06  0.43808485E-06
  0.14358199E-06 -0.14589671E-06 -0.42790759E-06 -0.70012490E-06 -0.96035863E-06
 -0.12065708E-05 -0.14368901E-05 -0.16496245E-05 -0.18432728E-05 -0.20165331E-05
 -0.21683102E-05 -0.22977212E-05 -0.24040980E-05 -0.24869893E-05 -0.25461595E-05
 -0.25815865E-05 -0.25934572E-05 -0.25821618E-05 -0.25482854E-05 -0.24925997E-05
 -0.24160516E-05 -0.23197516E-05 -0.22049604E-05 -0.20730751E-05 -0.19256136E-05
 -0.17641991E-05 -0.15905436E-05 -0.14064313E-05 -0.12137009E-05 -0.10142288E-05
 -0.80991172E-06 -0.60264975E-06 -0.39432949E-06 -0.18680788E-06  0.18103488E-07
  0.21865331E-06  0.41316467E-06  0.60004822E-06  0.77781430E-06  0.94508394E-06
  0.11005987E-05  0.12432292E-05  0.13719823E-05  0.14860073E-05  0.15846001E-05
  0.16672067E-05  0.17334246E-05  0.17830038E-05  0.18158454E-05  0.18319995E-05
  0.18316619E-05  0.18151692E-05  0.17829934E-05  0.17357342E-05  0.16741122E-05
  0.15989592E-05  0.15112092E-05  0.14118881E-05  0.13021026E-05  0.11830292E-05
  0.10559022E-05  0.92200173E-06  0.78264185E-06  0.63915814E-06  0.49289560E-06
  0.34519672E-06  0.19738970E-06  0.50777159E-07 -0.93374832E-07 -0.23384707E-06
 -0.36947700E-06 -0.49916773E-06 -0.62189638E-06 -0.73672155E-06 -0.84278993E-06
 -0.93934206E-06 -0.10257171E-05 -0.11013566E-05 -0.11658075E-05 -0.12187238E-05
 -0.12598677E-05 -0.12891095E-05 -0.13064263E-05 -0.13119004E-05 -0.13057164E-05
 -0.12881577E-05 -0.12596018E-05 -0.12205151E-05 -0.11714476E-05 -0.11130257E-05
 -0.10459458E-05 -0.97096652E-06 -0.88890080E-06 -0.80060791E-06 -0.70698487E-06
 -0.60895792E-06 -0.50747377E-06 -0.40349098E-06 -0.29797128E-06 -0.19187111E-06
 -0.86133339E-07  0.18320711E-07  0.12059892E-06  0.21984562E-06  0.31524835E-06
  0.40604413E-06  0.49152521E-06  0.57104413E-06  0.64401826E-06  0.70993361E-06
  0.76834802E-06  0.81889359E-06  0.86127849E-06  0.89528803E-06  0.92078503E-06
  0.93770953E-06  0.94607779E-06  0.94598071E-06  0.93758156E-06  0.92111316E-06
  0.89687449E-06  0.86522681E-06  0.82658928E-06  0.78143418E-06  0.73028177E-06
  0.67369480E-06  0.61227277E-06  0.54664599E-06  0.47746946E-06  0.40541668E-06
  0.33117343E-06  0.25543148E-06  0.17888250E-06  0.10221197E-06  0.26093334E-07
 -0.48817670E-07 -0.12188838E-06 -0.19251431E-06 -0.26012387E-06 -0.32418274E-06
 -0.38419782E-06 -0.43972076E-06 -0.49035096E-06 -0.53573824E-06 -0.57558486E-06
 -0.60964715E-06 -0.63773658E-06 -0.65972038E-06 -0.67552162E-06 -0.68511879E-06
 -0.68854498E-06 -0.68588650E-06 -0.67728113E-06 -0.66291596E-06 -0.64302478E-06
 -0.61788517E-06 -0.58781524E-06 -0.55317010E-06 -0.51433805E-06 -0.47173654E-06
 -0.42580803E-06 -0.37701560E-06 -0.32583858E-06 -0.27276802E-06 -0.21830221E-06
 -0.16294220E-06 -0.10718739E-06 -0.51531217E-07  0.35430660E-08  0.57566352E-07
  0.11008753E-06  0.16067704E-06  0.20893023E-06  0.25447041E-06  0.29695156E-06
  0.33606080E-06  0.37152044E-06  0.40308979E-06  0.43056649E-06  0.45378759E-06
  0.47263018E-06  0.48701174E-06  0.49689009E-06  0.50226295E-06  0.50316725E-06
  0.49967807E-06  0.49190723E-06  0.48000166E-06  0.46414145E-06  0.44453767E-06
  0.42142992E-06  0.39508375E-06  0.36578787E-06  0.33385116E-06  0.29959968E-06
  0.26337345E-06  0.22552329E-06  0.18640754E-06  0.14638885E-06  0.10583092E-06
  0.65095335E-07  0.24538502E-07 -0.15491377E-07 -0.54657145E-07 -0.92635409E-07
 -0.12911908E-06 -0.16381971E-06 -0.19646967E-06 -0.22682404E-06 -0.25466233E-06
 -0.27978990E-06 -0.30203918E-06 -0.32127060E-06 -0.33737327E-06 -0.35026540E-06
 -0.35989447E-06 -0.36623712E-06 -0.36929881E-06 -0.36911325E-06 -0.36574154E-06
 -0.35927118E-06 -0.34981475E-06 -0.33750854E-06 -0.32251090E-06 -0.30500044E-06
 -0.28517416E-06 -0.26324536E-06 -0.23944150E-06 -0.21400202E-06 -0.18717601E-06
 -0.15921988E-06 -0.13039506E-06 -0.10096561E-06 -0.71195912E-07 -0.41348403E-07
 -0.11681337E-07  0.17553349E-07  0.46112088E-07  0.73761616E-07  0.10028079E-06
  0.12546224E-06  0.14911394E-06  0.17106051E-06  0.19114446E-06  0.20922718E-06
  0.22518979E-06  0.23893378E-06  0.25038148E-06  0.25947634E-06  0.26618302E-06
  0.27048729E-06  0.27239577E-06  0.27193546E-06  0.26915317E-06  0.26411471E-06
  0.25690399E-06  0.24762196E-06  0.23638543E-06  0.22332580E-06  0.20858762E-06
  0.19232713E-06  0.17471072E-06  0.15591332E-06  0.13611672E-06  0.11550792E-06
  0.94277431E-07  0.72617564E-07  0.50720789E-07  0.28778074E-07  0.69772859E-08
 -0.14498347E-07 -0.35471711E-07 -0.55773204E-07 -0.75242032E-07 -0.93727421E-07
 -0.11108971E-06 -0.12720132E-06 -0.14194764E-06 -0.15522775E-06 -0.16695499E-06
 -0.17705748E-06 -0.18547845E-06 -0.19217640E-06 -0.19712521E-06 -0.20031407E-06
 -0.20174727E-06 -0.20144390E-06 -0.19943741E-06 -0.19577507E-06 -0.19051729E-06
 -0.18373689E-06 -0.17551827E-06 -0.16595642E-06 -0.15515599E-06 -0.14323020E-06
 -0.13029972E-06 -0.11649153E-06 -0.10193771E-06 -0.86774269E-07 -0.71139891E-07
 -0.55174736E-07 -0.39019226E-07 -0.22812865E-07 -0.66930756E-08  0.92059153E-08
  0.24754146E-07  0.39826934E-07  0.54305828E-07  0.68079483E-07  0.81044473E-07
  0.93106003E-07  0.10417856E-06  0.11418643E-06  0.12306421E-06  0.13075709E-06
  0.13722120E-06  0.14242370E-06  0.14634293E-06  0.14896831E-06  0.15030028E-06
  0.15035010E-06  0.14913952E-06  0.14670043E-06  0.14307441E-06  0.13831222E-06
  0.13247317E-06  0.12562452E-06  0.11784076E-06  0.10920285E-06  0.99797427E-07
  0.89716000E-07  0.79054094E-07  0.67910385E-07  0.56385825E-07  0.44582763E-07
  0.32604075E-07  0.20552297E-07  0.85287889E-08 -0.33670887E-08 -0.15038758E-07
 -0.26393171E-07 -0.37341521E-07 -0.47799893E-07 -0.57689874E-07 -0.66939102E-07
 -0.75481752E-07 -0.83258967E-07 -0.90219214E-07 -0.96318584E-07 -0.10152102E-06
 -0.10579846E-06 -0.10913095E-06 -0.11150664E-06 -0.11292179E-06 -0.11338057E-06
 -0.11289497E-06 -0.11148453E-06 -0.10917605E-06 -0.10600326E-06 -0.10200639E-06
 -0.97231763E-07 -0.91731293E-07 -0.85561972E-07 -0.78785312E-07 -0.71466769E-07
 -0.63675141E-07 -0.55481948E-07 -0.46960806E-07 -0.38186790E-07 -0.29235801E-07
 -0.20183932E-07 -0.11106848E-07 -0.20791799E-08  0.68260662E-08  0.15538071E-07
  0.23988740E-07  0.32113211E-07  0.39850322E-07  0.47143047E-07  0.53938888E-07
  0.60190223E-07  0.65854608E-07  0.70895038E-07  0.75280156E-07  0.78984406E-07
  0.81988153E-07  0.84277738E-07  0.85845494E-07  0.86689708E-07  0.86814540E-07
  0.86229892E-07  0.84951240E-07  0.82999417E-07  0.80400361E-07  0.77184825E-07
  0.73388057E-07  0.69049442E-07  0.64212124E-07  0.58922601E-07  0.53230302E-07
  0.47187144E-07  0.40847079E-07  0.34265633E-07  0.27499437E-07  0.20605760E-07
  0.13642042E-07  0.66654323E-08 -0.26765715E-09 -0.71019936E-08 -0.13783943E-07
 -0.20261873E-07 -0.26486532E-07 -0.32411406E-07 -0.37993048E-07 -0.43191374E-07
 -0.47969936E-07 -0.52296155E-07 -0.56141520E-07 -0.59481761E-07 -0.62296974E-07
 -0.64571721E-07 -0.66295081E-07 -0.67460681E-07 -0.68066672E-07 -0.68115689E-07
 -0.67614760E-07 -0.66575194E-07 -0.65012430E-07 -0.62945857E-07 -0.60398609E-07
 -0.57397333E-07 -0.53971925E-07 -0.50155257E-07 -0.45982875E-07 -0.41492684E-07
 -0.36724617E-07 -0.31720297E-07 -0.26522686E-07 -0.21175728E-07 -0.15723992E-07
 -0.10212316E-07 -0.46854488E-08  0.81230153E-09  0.62374066E-08  0.11547452E-07
  0.16701455E-07  0.21660168E-07  0.26386369E-07  0.30845121E-07  0.35004027E-07
  0.38833445E-07  0.42306693E-07  0.45400220E-07  0.48093756E-07  0.50370427E-07
  0.52216854E-07  0.53623211E-07  0.54583266E-07  0.55094386E-07  0.55157514E-07
  0.54777129E-07  0.53961162E-07  0.52720901E-07  0.51070865E-07  0.49028652E-07
  0.46614771E-07  0.43852447E-07  0.40767412E-07  0.37387674E-07  0.33743277E-07
  0.29866042E-07  0.25789299E-07  0.21547610E-07  0.17176489E-07  0.12712109E-07
  0.81910153E-08  0.36498331E-08 -0.87501876E-09 -0.53476122E-08 -0.97327867E-08
 -0.13996418E-07 -0.18105674E-07 -0.22029263E-07 -0.25737663E-07 -0.29203336E-07
 -0.32400928E-07 -0.35307445E-07 -0.37902415E-07 -0.40168024E-07 -0.42089231E-07
 -0.43653864E-07 -0.44852691E-07 -0.45679460E-07 -0.46130932E-07 -0.46206872E-07
 -0.45910030E-07 -0.45246092E-07 -0.44223609E-07 -0.42853910E-07 -0.41150985E-07
 -0.39131356E-07 -0.36813923E-07 -0.34219798E-07 -0.31372122E-07 -0.28295859E-07
 -0.25017593E-07 -0.21565301E-07 -0.17968120E-07 -0.14256109E-07 -0.10460006E-07
 -0.66109753E-08 -0.27403614E-08  0.11205633E-08  0.49408444E-08  0.86900893E-08
  0.12338704E-07  0.15858122E-07  0.19221024E-07  0.22401546E-07  0.25375475E-07
  0.28120430E-07  0.30616026E-07  0.32844024E-07  0.34788460E-07  0.36435760E-07
   19.8421228800787      T
 Non local Part
           0           2   1.02927938025280
   12.5899829070998        13.2609075459838        13.2609075459838
   13.9685470677237
 Reciprocal Space Part
 -0.16800985E+03 -0.16683587E+03 -0.16333265E+03 -0.15755598E+03 -0.14959770E+03
 -0.13958397E+03 -0.12767288E+03 -0.11405154E+03 -0.98932578E+02 -0.82550236E+02
 -0.65156049E+02 -0.47014271E+02 -0.28397104E+02 -0.95798346E+01  0.91640179E+01
  0.27567453E+02  0.45374540E+02  0.62344678E+02  0.78256496E+02  0.92911304E+02
  0.10613605E+03  0.11778571E+03  0.12774512E+03  0.13593017E+03  0.14228835E+03
  0.14679875E+03  0.14947139E+03  0.15034599E+03  0.14949020E+03  0.14699742E+03
  0.14298403E+03  0.13758646E+03  0.13095785E+03  0.12326452E+03  0.11468237E+03
  0.10539316E+03  0.95580920E+02  0.85428349E+02  0.75113494E+02  0.64806623E+02
  0.54667406E+02  0.44842444E+02  0.35463184E+02  0.26644246E+02  0.18482181E+02
  0.11054665E+02  0.44201323E+01 -0.13821728E+01 -0.63317396E+01 -0.10425967E+02
 -0.13679001E+02 -0.16120289E+02 -0.17792882E+02 -0.18751553E+02 -0.19060770E+02
 -0.18792589E+02 -0.18024517E+02 -0.16837388E+02 -0.15313314E+02 -0.13533743E+02
 -0.11577671E+02 -0.95200355E+01 -0.74303212E+01 -0.53713973E+01 -0.33985968E+01
 -0.15590491E+01  0.10873862E+00  0.15750542E+01  0.28189218E+01  0.38278285E+01
  0.45972576E+01  0.51300540E+01  0.54356510E+01  0.55291866E+01  0.54305423E+01
  0.51633341E+01  0.47538863E+01  0.42302180E+01  0.36210669E+01  0.29549758E+01
  0.22594628E+01  0.15602892E+01  0.88084190E+00  0.24163598E+00 -0.34005534E+00
 -0.85044379E+00 -0.12793441E+01 -0.16201735E+01 -0.18698415E+01 -0.20285416E+01
 -0.20994590E+01 -0.20884092E+01 -0.20034235E+01 -0.18542990E+01 -0.16521283E+01
 -0.14088262E+01 -0.11366675E+01 -0.84785045E+00 -0.55409649E+00 -0.26629731E+00
 Real Space Part
  0.79441539E+03  0.79400668E+03  0.79278102E+03  0.79073983E+03  0.78788553E+03
  0.78422146E+03  0.77975194E+03  0.77448225E+03  0.76841865E+03  0.76156836E+03
  0.75393959E+03  0.74554153E+03  0.73638436E+03  0.72647928E+03  0.71583848E+03
  0.70447516E+03  0.69240358E+03  0.67963902E+03  0.66619782E+03  0.65209737E+03
  0.63735616E+03  0.62199376E+03  0.60603086E+03  0.58948926E+03  0.57239192E+03
  0.55476294E+03  0.53662761E+03  0.51801241E+03  0.49894502E+03  0.47945436E+03
  0.45957060E+03  0.43932515E+03  0.41875071E+03  0.39788126E+03  0.37675208E+03
  0.35539975E+03  0.33386218E+03  0.31217855E+03  0.29038938E+03  0.26853646E+03
  0.24666287E+03  0.22481291E+03  0.20303214E+03  0.18136724E+03  0.15986605E+03
  0.13857741E+03  0.11755114E+03  0.96837916E+02  0.76489161E+02  0.56556897E+02
  0.37093592E+02  0.18151989E+02 -0.21510560E+00 -0.17955046E+02 -0.35015602E+02
 -0.51345237E+02 -0.66893419E+02 -0.81610958E+02 -0.95450367E+02 -0.10836625E+03
 -0.12031574E+03 -0.13125891E+03 -0.14115925E+03 -0.14998416E+03 -0.15770542E+03
 -0.16429971E+03 -0.16974912E+03 -0.17404163E+03 -0.17717160E+03 -0.17914024E+03
 -0.17995605E+03 -0.17963520E+03 -0.17820184E+03 -0.17568841E+03 -0.17213581E+03
 -0.16759352E+03 -0.16211959E+03 -0.15578056E+03 -0.14865127E+03 -0.14081449E+03
 -0.13236048E+03 -0.12338648E+03 -0.11399590E+03 -0.10429765E+03 -0.94405081E+02
 -0.84435084E+02 -0.74506905E+02 -0.64741038E+02 -0.55257956E+02 -0.46176891E+02
 -0.37614561E+02 -0.29683927E+02 -0.22492979E+02 -0.16143586E+02 -0.10730376E+02
 -0.63399515E+01 -0.30498327E+01 -0.92212233E+00 -0.46466673E-01  0.00000000E+00
 Reciprocal Space Part
  0.16467398E+03  0.16354676E+03  0.16018304E+03  0.15463623E+03  0.14699423E+03
  0.13737779E+03  0.12593827E+03  0.11285477E+03  0.98330867E+02  0.82590823E+02
  0.65875481E+02  0.48437886E+02  0.30538722E+02  0.12441661E+02 -0.55912776E+01
 -0.23304269E+02 -0.40452040E+02 -0.56803943E+02 -0.72147687E+02 -0.86292646E+02
 -0.99072681E+02 -0.11034845E+03 -0.12000913E+03 -0.12797359E+03 -0.13419093E+03
 -0.13864046E+03 -0.14133107E+03 -0.14230007E+03 -0.14161153E+03 -0.13935411E+03
 -0.13563854E+03 -0.13059475E+03 -0.12436867E+03 -0.11711893E+03 -0.10901332E+03
 -0.10022537E+03 -0.90930763E+02 -0.81304040E+02 -0.71515328E+02 -0.61727390E+02
 -0.52092920E+02 -0.42752179E+02 -0.33831002E+02 -0.25439187E+02 -0.17669311E+02
 -0.10595948E+02 -0.42753176E+01  0.12546746E+01  0.59740065E+01  0.98797580E+01
  0.12985008E+02  0.15317457E+02  0.16917811E+02  0.17837987E+02  0.18139188E+02
  0.17889887E+02  0.17163789E+02  0.16037809E+02  0.14590115E+02  0.12898271E+02
  0.11037536E+02  0.90793213E+01  0.70898675E+01  0.51291252E+01  0.32498776E+01
  0.14971001E+01 -0.92441380E-01 -0.14903586E+01 -0.26765875E+01 -0.36391301E+01
 -0.43736118E+01 -0.48826783E+01 -0.51752601E+01 -0.52657315E+01 -0.51729949E+01
 -0.49195199E+01 -0.45303654E+01 -0.40322134E+01 -0.34524382E+01 -0.28182360E+01
 -0.21558322E+01 -0.14897837E+01 -0.84238939E+00 -0.23321480E+00  0.32126124E+00
  0.80787926E+00  0.12169125E+01  0.15420673E+01  0.17803786E+01  0.19320124E+01
  0.19999872E+01  0.19898305E+01  0.19091839E+01  0.17673739E+01  0.15749647E+01
  0.13433064E+01  0.10840946E+01  0.80895436E+00  0.52905814E+00  0.25478949E+00
 Real Space Part
 -0.75040441E+03 -0.75001684E+03 -0.74885457E+03 -0.74691898E+03 -0.74421232E+03
 -0.74073779E+03 -0.73649948E+03 -0.73150240E+03 -0.72575249E+03 -0.71925660E+03
 -0.71202252E+03 -0.70405897E+03 -0.69537562E+03 -0.68598309E+03 -0.67589294E+03
 -0.66511772E+03 -0.65367094E+03 -0.64156711E+03 -0.62882173E+03 -0.61545133E+03
 -0.60147344E+03 -0.58690664E+03 -0.57177057E+03 -0.55608593E+03 -0.53987450E+03
 -0.52315917E+03 -0.50596396E+03 -0.48831399E+03 -0.47023556E+03 -0.45175612E+03
 -0.43290431E+03 -0.41370998E+03 -0.39420416E+03 -0.37441912E+03 -0.35438839E+03
 -0.33414669E+03 -0.31373002E+03 -0.29317562E+03 -0.27252195E+03 -0.25180873E+03
 -0.23107685E+03 -0.21036843E+03 -0.18972672E+03 -0.16919608E+03 -0.14882194E+03
 -0.12865073E+03 -0.10872975E+03 -0.89107166E+02 -0.69831817E+02 -0.50953128E+02
 -0.32520948E+02 -0.14585382E+02  0.28034049E+01  0.19595400E+02  0.35740989E+02
  0.51191219E+02  0.65898094E+02  0.79814895E+02  0.92896528E+02  0.10509989E+03
  0.11638428E+03  0.12671181E+03  0.13604782E+03  0.14436141E+03  0.15162581E+03
  0.15781895E+03  0.16292388E+03  0.16692926E+03  0.16982984E+03  0.17162689E+03
  0.17232858E+03  0.17195041E+03  0.17051548E+03  0.16805476E+03  0.16460726E+03
  0.16022018E+03  0.15494886E+03  0.14885670E+03  0.14201502E+03  0.13450265E+03
  0.12640558E+03  0.11781640E+03  0.10883359E+03  0.99560829E+02  0.90106043E+02
  0.80580498E+02  0.71097696E+02  0.61772316E+02  0.52719005E+02  0.44051220E+02
  0.35880013E+02  0.28312847E+02  0.21452448E+02  0.15395703E+02  0.10232597E+02
  0.60454676E+01  0.29080009E+01  0.87919091E+00  0.44300810E-01  0.00000000E+00
 Non local Part
           1           2   1.02927938025280
   5.16211496453205        6.53320325514917        6.53320325514917
   8.27918027737059
 Reciprocal Space Part
  0.00000000E+00  0.54975996E+01  0.10872460E+02  0.16004358E+02  0.20778053E+02
  0.25085637E+02  0.28828733E+02  0.31920476E+02  0.34287257E+02  0.35870166E+02
  0.36626132E+02  0.36528713E+02  0.35568533E+02  0.33753363E+02  0.31107835E+02
  0.27672807E+02  0.23504393E+02  0.18672689E+02  0.13260211E+02  0.73601012E+01
  0.10741303E+01 -0.54894495E+01 -0.12218157E+02 -0.18997589E+02 -0.25713722E+02
 -0.32255176E+02 -0.38515372E+02 -0.44394553E+02 -0.49801619E+02 -0.54655744E+02
 -0.58887742E+02 -0.62441157E+02 -0.65273062E+02 -0.67354557E+02 -0.68670958E+02
 -0.69221683E+02 -0.69019853E+02 -0.68091609E+02 -0.66475179E+02 -0.64219729E+02
 -0.61384011E+02 -0.58034860E+02 -0.54245570E+02 -0.50094201E+02 -0.45661836E+02
 -0.41030847E+02 -0.36283202E+02 -0.31498852E+02 -0.26754216E+02 -0.22120828E+02
 -0.17664126E+02 -0.13442443E+02 -0.95061961E+01 -0.58972789E+01 -0.26486784E+01
  0.21569821E+00  0.26809868E+01  0.47411318E+01  0.63984678E+01  0.76631380E+01
  0.85523680E+01  0.90896235E+01  0.93036733E+01  0.92275887E+01  0.88977043E+01
  0.83525678E+01  0.76319047E+01  0.67756223E+01  0.58228751E+01  0.48112100E+01
  0.37758092E+01  0.27488421E+01  0.17589365E+01  0.83077590E+00 -0.15177519E-01
 -0.76283188E+00 -0.14004934E+01 -0.19207793E+01 -0.23204250E+01 -0.25999997E+01
 -0.27635416E+01 -0.28181293E+01 -0.27734058E+01 -0.26410689E+01 -0.24343479E+01
 -0.21674775E+01 -0.18551878E+01 -0.15122204E+01 -0.11528841E+01 -0.79065917E+00
 -0.43785809E+00 -0.10534844E+00  0.19765854E+00  0.46375242E+00  0.68740168E+00
  0.86496803E+00  0.99466127E+00  0.10764403E+01  0.11118674E+01  0.11039234E+01
 Real Space Part
  0.00000000E+00 -0.15321247E+02 -0.30596617E+02 -0.45780355E+02 -0.60826959E+02
 -0.75691298E+02 -0.90328739E+02 -0.10469527E+03 -0.11874762E+03 -0.13244338E+03
 -0.14574113E+03 -0.15860055E+03 -0.17098254E+03 -0.18284935E+03 -0.19416465E+03
 -0.20489371E+03 -0.21500346E+03 -0.22446259E+03 -0.23324172E+03 -0.24131343E+03
 -0.24865241E+03 -0.25523553E+03 -0.26104197E+03 -0.26605325E+03 -0.27025340E+03
 -0.27362898E+03 -0.27616920E+03 -0.27786596E+03 -0.27871399E+03 -0.27871083E+03
 -0.27785697E+03 -0.27615588E+03 -0.27361405E+03 -0.27024107E+03 -0.26604963E+03
 -0.26105561E+03 -0.25527803E+03 -0.24873913E+03 -0.24146437E+03 -0.23348239E+03
 -0.22482503E+03 -0.21552730E+03 -0.20562732E+03 -0.19516630E+03 -0.18418844E+03
 -0.17274086E+03 -0.16087348E+03 -0.14863892E+03 -0.13609231E+03 -0.12329118E+03
 -0.11029519E+03 -0.97165987E+02 -0.83966884E+02 -0.70762632E+02 -0.57619085E+02
 -0.44602868E+02 -0.31781005E+02 -0.19220516E+02 -0.69879780E+01  0.48509380E+01
  0.16231964E+02  0.27092759E+02  0.37373455E+02  0.47017230E+02  0.55970888E+02
  0.64185458E+02  0.71616790E+02  0.78226151E+02  0.83980809E+02  0.88854588E+02
  0.92828396E+02  0.95890712E+02  0.98038003E+02  0.99275083E+02  0.99615391E+02
  0.99081186E+02  0.97703614E+02  0.95522675E+02  0.92587108E+02  0.88954064E+02
  0.84688735E+02  0.79863810E+02  0.74558777E+02  0.68859182E+02  0.62855650E+02
  0.56642939E+02  0.50318760E+02  0.43982655E+02  0.37734707E+02  0.31674300E+02
  0.25898816E+02  0.20502366E+02  0.15574551E+02  0.11199286E+02  0.74536762E+01
  0.44071098E+01  0.21202978E+01  0.64175959E+00  0.25600037E-01  0.00000000E+00
 Reciprocal Space Part
  0.00000000E+00 -0.42064117E+01 -0.83158546E+01 -0.12233364E+02 -0.15867940E+02
 -0.19134422E+02 -0.21955233E+02 -0.24261961E+02 -0.25996738E+02 -0.27113398E+02
 -0.27578365E+02 -0.27371290E+02 -0.26485392E+02 -0.24927510E+02 -0.22717877E+02
 -0.19889601E+02 -0.16487890E+02 -0.12569028E+02 -0.81991228E+01 -0.34526731E+01
  0.15890314E+01  0.68396256E+01  0.12209468E+02  0.17607482E+02  0.22942994E+02
  0.28127534E+02  0.33076563E+02  0.37711071E+02  0.41959044E+02  0.45756745E+02
  0.49049797E+02  0.51794043E+02  0.53956173E+02  0.55514116E+02  0.56457170E+02
  0.56785912E+02  0.56511854E+02  0.55656894E+02  0.54252558E+02  0.52339067E+02
  0.49964252E+02  0.47182339E+02  0.44052647E+02  0.40638223E+02  0.37004447E+02
  0.33217643E+02  0.29343719E+02  0.25446875E+02  0.21588400E+02  0.17825581E+02
  0.14210749E+02  0.10790466E+02  0.76048900E+01  0.46872897E+01  0.20637493E+01
 -0.24696352E+00 -0.22333600E+01 -0.38910332E+01 -0.52223150E+01 -0.62358010E+01
 -0.69457621E+01 -0.73714608E+01 -0.75363947E+01 -0.74674883E+01 -0.71942548E+01
 -0.67479500E+01 -0.61607398E+01 -0.54648983E+01 -0.46920579E+01 -0.38725226E+01
 -0.30346615E+01 -0.22043902E+01 -0.14047480E+01 -0.65557720E+00  0.26696043E-01
  0.62917837E+00  0.11425280E+01  0.15608812E+01  0.18816943E+01  0.21055111E+01
  0.22356672E+01  0.22779428E+01  0.22401768E+01  0.21318561E+01  0.19636918E+01
  0.17471963E+01  0.14942709E+01  0.12168169E+01  0.92637773E+00  0.63382068E+00
  0.34906450E+00  0.80856990E-01 -0.16339425E+00 -0.37773716E+00 -0.55773699E+00
 -0.70048675E+00 -0.80456974E+00 -0.86997886E+00 -0.89799822E+00 -0.89105360E+00
 Real Space Part
  0.00000000E+00  0.12579725E+02  0.25122000E+02  0.37589478E+02  0.49945013E+02
  0.62151764E+02  0.74173297E+02  0.85973681E+02  0.97517591E+02  0.10877041E+03
  0.11969830E+03  0.13026837E+03  0.14044867E+03  0.15020837E+03  0.15951782E+03
  0.16834863E+03  0.17667379E+03  0.18446773E+03  0.19170642E+03  0.19836746E+03
  0.20443016E+03  0.20987559E+03  0.21468670E+03  0.21884839E+03  0.22234754E+03
  0.22517313E+03  0.22731629E+03  0.22877035E+03  0.22953091E+03  0.22959590E+03
  0.22896563E+03  0.22764282E+03  0.22563269E+03  0.22294294E+03  0.21958383E+03
  0.21556818E+03  0.21091140E+03  0.20563150E+03  0.19974912E+03  0.19328748E+03
  0.18627242E+03  0.17873234E+03  0.17069818E+03  0.16220341E+03  0.15328391E+03
  0.14397795E+03  0.13432609E+03  0.12437107E+03  0.11415769E+03  0.10373270E+03
  0.93144599E+02  0.82443482E+02  0.71680833E+02  0.60909300E+02  0.50182439E+02
  0.39554445E+02  0.29079845E+02  0.18813176E+02  0.88086290E+01 -0.88032818E+00
 -0.10201352E+02 -0.19103650E+02 -0.27538422E+02 -0.35459323E+02 -0.42822937E+02
 -0.49589261E+02 -0.55722188E+02 -0.61189995E+02 -0.65965808E+02 -0.70028063E+02
 -0.73360928E+02 -0.75954703E+02 -0.77806157E+02 -0.78918822E+02 -0.79303219E+02
 -0.78977019E+02 -0.77965100E+02 -0.76299523E+02 -0.74019436E+02 -0.71170823E+02
 -0.67806193E+02 -0.63984150E+02 -0.59768830E+02 -0.55229297E+02 -0.50438761E+02
 -0.45473805E+02 -0.40413441E+02 -0.35338192E+02 -0.30329056E+02 -0.25466500E+02
 -0.20829405E+02 -0.16494038E+02 -0.12533051E+02 -0.90145253E+01 -0.60010593E+01
 -0.35490358E+01 -0.17078404E+01 -0.51702500E+00 -0.20629098E-01  0.00000000E+00
 PAW radial sets
         371  0.940643174700967
(5E20.12)
 augmentation charges (non sperical)
 -0.374852642215E+00 -0.392920964763E+00 -0.154245570597E+00 -0.191438223929E+00 -0.392920964763E+00
 -0.411877790728E+00 -0.162146210883E+00 -0.201218685469E+00 -0.154245570597E+00 -0.162146210883E+00
 -0.421592153158E-01 -0.508818708409E-01 -0.191438223929E+00 -0.201218685469E+00 -0.508818708409E-01
 -0.613773277758E-01
 uccopancies in atom
  0.200000000092E+01  0.000000000000E+00  0.000000000000E+00  0.000000000000E+00  0.000000000000E+00
  0.000000000000E+00  0.000000000000E+00  0.000000000000E+00  0.000000000000E+00  0.000000000000E+00
  0.166666666684E+01  0.000000000000E+00  0.000000000000E+00  0.000000000000E+00  0.000000000000E+00
  0.000000000000E+00
 grid
  0.381802798748E-04  0.394218073282E-04  0.407037061571E-04  0.420272891380E-04  0.433939117355E-04
  0.448049734906E-04  0.462619194538E-04  0.477662416650E-04  0.493194806818E-04  0.509232271565E-04
  0.525791234657E-04  0.542888653919E-04  0.560542038603E-04  0.578769467317E-04  0.597589606541E-04
  0.617021729742E-04  0.637085737112E-04  0.657802175949E-04  0.679192261695E-04  0.701277899668E-04
  0.724081707491E-04  0.747627038255E-04  0.771938004438E-04  0.797039502592E-04  0.822957238846E-04
  0.849717755226E-04  0.877348456840E-04  0.905877639940E-04  0.935334520902E-04  0.965749266148E-04
  0.997153023033E-04  0.102957795175E-03  0.106305725826E-03  0.109762522829E-03  0.113331726248E-03
  0.117016991257E-03  0.120822091891E-03  0.124750924905E-03  0.128807513768E-03  0.132996012780E-03
  0.137320711331E-03  0.141786038290E-03  0.146396566543E-03  0.151157017672E-03  0.156072266796E-03
  0.161147347559E-03  0.166387457288E-03  0.171797962314E-03  0.177384403464E-03  0.183152501745E-03
  0.189108164192E-03  0.195257489925E-03  0.201606776389E-03  0.208162525810E-03  0.214931451847E-03
  0.221920486473E-03  0.229136787069E-03  0.236587743758E-03  0.244280986971E-03  0.252224395261E-03
  0.260426103372E-03  0.268894510570E-03  0.277638289244E-03  0.286666393787E-03  0.295988069768E-03
  0.305612863397E-03  0.315550631304E-03  0.325811550631E-03  0.336406129457E-03  0.347345217557E-03
  0.358640017511E-03  0.370302096183E-03  0.382343396560E-03  0.394776249986E-03  0.407613388790E-03
  0.420867959322E-03  0.434553535422E-03  0.448684132316E-03  0.463274220968E-03  0.478338742907E-03
  0.493893125517E-03  0.509953297846E-03  0.526535706914E-03  0.543657334557E-03  0.561335714817E-03
  0.579588951902E-03  0.598435738720E-03  0.617895376029E-03  0.637987792197E-03  0.658733563614E-03
  0.680153935764E-03  0.702270844978E-03  0.725106940905E-03  0.748685609703E-03  0.773030997988E-03
  0.798168037566E-03  0.824122470962E-03  0.850920877784E-03  0.878590701942E-03  0.907160279753E-03
  0.936658868962E-03  0.967116678703E-03  0.998564900433E-03  0.103103573988E-02  0.106456245002E-02
  0.109917936514E-02  0.113492193598E-02  0.117182676605E-02  0.120993164913E-02  0.124927560795E-02
  0.128989893416E-02  0.133184322959E-02  0.137515144888E-02  0.141986794341E-02  0.146603850679E-02
  0.151371042172E-02  0.156293250839E-02  0.161375517452E-02  0.166623046697E-02  0.172041212502E-02
  0.177635563542E-02  0.183411828922E-02  0.189375924042E-02  0.195533956656E-02  0.201892233129E-02
  0.208457264891E-02  0.215235775108E-02  0.222234705567E-02  0.229461223784E-02  0.236922730346E-02
  0.244626866487E-02  0.252581521916E-02  0.260794842895E-02  0.269275240582E-02  0.278031399646E-02
  0.287072287159E-02  0.296407161780E-02  0.306045583235E-02  0.315997422112E-02  0.326272869962E-02
  0.336882449742E-02  0.347837026588E-02  0.359147818946E-02  0.370826410054E-02  0.382884759810E-02
  0.395335217018E-02  0.408190532035E-02  0.421463869826E-02  0.435168823449E-02  0.449319427974E-02
  0.463930174857E-02  0.479016026779E-02  0.494592432971E-02  0.510675345034E-02  0.527281233275E-02
  0.544427103576E-02  0.562130514804E-02  0.580409596802E-02  0.599283068945E-02  0.618770259319E-02
  0.638891124509E-02  0.659666270039E-02  0.681116971475E-02  0.703265196208E-02  0.726133625957E-02
  0.749745679991E-02  0.774125539118E-02  0.799298170443E-02  0.825289352940E-02  0.852125703853E-02
  0.879834705949E-02  0.908444735667E-02  0.937985092178E-02  0.968486027389E-02  0.999978776923E-02
  0.103249559211E-01  0.106606977300E-01  0.110073570250E-01  0.113652888155E-01  0.117348596548E-01
  0.121164480159E-01  0.125104446785E-01  0.129172531297E-01  0.133372899769E-01  0.137709853745E-01
  0.142187834644E-01  0.146811428312E-01  0.151585369711E-01  0.156514547775E-01  0.161604010412E-01
  0.166858969678E-01  0.172284807110E-01  0.177887079239E-01  0.183671523282E-01  0.189644063015E-01
  0.195810814840E-01  0.202178094050E-01  0.208752421296E-01  0.215540529263E-01  0.222549369567E-01
  0.229786119872E-01  0.237258191244E-01  0.244973235737E-01  0.252939154229E-01  0.261164104519E-01
  0.269656509673E-01  0.278425066657E-01  0.287478755239E-01  0.296826847187E-01  0.306478915766E-01
  0.316444845535E-01  0.326734842478E-01  0.337359444452E-01  0.348329531977E-01  0.359656339381E-01
  0.371351466305E-01  0.383426889580E-01  0.395894975496E-01  0.408768492462E-01  0.422060624084E-01
  0.435784982667E-01  0.449955623153E-01  0.464587057516E-01  0.479694269623E-01  0.495292730581E-01
  0.511398414575E-01  0.528027815234E-01  0.545197962517E-01  0.562926440155E-01  0.581231403660E-01
  0.600131598912E-01  0.619646381363E-01  0.639795735856E-01  0.660600297091E-01  0.682081370756E-01
  0.704260955348E-01  0.727161764700E-01  0.750807251242E-01  0.775221630017E-01  0.800429903484E-01
  0.826457887116E-01  0.853332235845E-01  0.881080471351E-01  0.909731010253E-01  0.939313193205E-01
  0.969857314948E-01  0.100139465533E+00  0.103395751135E+00  0.106757923021E+00  0.110229424349E+00
  0.113813810240E+00  0.117514751419E+00  0.121336037971E+00  0.125281583230E+00  0.129355427777E+00
  0.133561743586E+00  0.137904838292E+00  0.142389159602E+00  0.147019299855E+00  0.151800000718E+00
  0.156736158047E+00  0.161832826898E+00  0.167095226705E+00  0.172528746626E+00  0.178138951059E+00
  0.183931585345E+00  0.189912581648E+00  0.196088065029E+00  0.202464359724E+00  0.209047995615E+00
  0.215845714921E+00  0.222864479102E+00  0.230111475983E+00  0.237594127124E+00  0.245320095413E+00
  0.253297292917E+00  0.261533888984E+00  0.270038318606E+00  0.278819291064E+00  0.287885798840E+00
  0.297247126831E+00  0.306912861855E+00  0.316892902469E+00  0.327197469106E+00  0.337837114543E+00
  0.348822734708E+00  0.360165579834E+00  0.371877265987E+00  0.383969786957E+00  0.396455526541E+00
  0.409347271229E+00  0.422658223292E+00  0.436402014310E+00  0.450592719126E+00  0.465244870261E+00
  0.480373472797E+00  0.495994019748E+00  0.512122507916E+00  0.528775454284E+00  0.545969912924E+00
  0.563723492464E+00  0.582054374121E+00  0.600981330319E+00  0.620523743916E+00  0.640701628051E+00
  0.661535646640E+00  0.683047135539E+00  0.705258124393E+00  0.728191359194E+00  0.751870325580E+00
  0.776319272881E+00  0.801563238955E+00  0.827628075830E+00  0.854540476176E+00  0.882328000644E+00
  0.911019106086E+00  0.940643174701E+00  0.971230544125E+00  0.100281253850E+01  0.103542150054E+01
  0.106909082467E+01  0.110385499124E+01  0.113974960177E+01  0.117681141549E+01  0.121507838694E+01
  0.125458970483E+01  0.129538583221E+01  0.133750854789E+01  0.138100098919E+01  0.142590769618E+01
  0.147227465725E+01  0.152014935623E+01  0.156958082099E+01  0.162061967366E+01  0.167331818250E+01
  0.172773031537E+01  0.178391179507E+01  0.184192015633E+01  0.190181480478E+01  0.196365707779E+01
  0.202751030723E+01  0.209343988440E+01  0.216151332695E+01  0.223180034803E+01  0.230437292768E+01
  0.237930538659E+01  0.245667446212E+01  0.253655938697E+01  0.261904197029E+01  0.270420668146E+01
  0.279214073657E+01  0.288293418778E+01  0.297668001553E+01  0.307347422372E+01  0.317341593810E+01
  0.327660750770E+01  0.338315460972E+01  0.349316635768E+01  0.360675541325E+01  0.372403810154E+01
  0.384513453026E+01  0.397016871275E+01  0.409926869493E+01  0.423256668646E+01  0.437019919614E+01
  0.451230717169E+01  0.465903614408E+01  0.481053637661E+01  0.496696301876E+01  0.512847626507E+01
  0.529524151923E+01
 aepotential
  0.213271306467E+05  0.212537397140E+05  0.211422574433E+05  0.209935326949E+05  0.208085956010E+05
  0.205887721483E+05  0.203357161033E+05  0.200511436615E+05  0.197370954884E+05  0.193956992053E+05
  0.190292612223E+05  0.186401202355E+05  0.182308032644E+05  0.178037716752E+05  0.173615527745E+05
  0.169066471144E+05  0.164415294095E+05  0.159685908880E+05  0.154901528673E+05  0.150084192823E+05
  0.145254826619E+05  0.140432957963E+05  0.135636742223E+05  0.130882774583E+05  0.126186148216E+05
  0.121560361334E+05  0.117017385356E+05  0.112567648106E+05  0.108220024092E+05  0.103982092676E+05
  0.998599577796E+04  0.958585144463E+04  0.919814485816E+04  0.882313612127E+04  0.846098591850E+04
  0.811176519677E+04  0.777546487227E+04  0.745200515462E+04  0.714124456809E+04  0.684298852037E+04
  0.655699737489E+04  0.628299377458E+04  0.602066979575E+04  0.576969289502E+04  0.552971184837E+04
  0.530036122249E+04  0.508126719213E+04  0.487204910065E+04  0.467232648506E+04  0.448171685175E+04
  0.429984411289E+04  0.412633586786E+04  0.396082741940E+04  0.380296300269E+04  0.365239553177E+04
  0.350879012389E+04  0.337182160889E+04  0.324117729328E+04  0.311655602350E+04  0.299766894665E+04
  0.288423909290E+04  0.277600080000E+04  0.267270356035E+04  0.257409874869E+04  0.247996704970E+04
  0.239007864166E+04  0.230423071606E+04  0.222222309457E+04  0.214386698134E+04  0.206898329265E+04
  0.199740133273E+04  0.192896120837E+04  0.186350764986E+04  0.180089636523E+04  0.174099006807E+04
  0.168365613898E+04  0.162877240488E+04  0.157622030315E+04  0.152588832023E+04  0.147767112474E+04
  0.143146814562E+04  0.138718441480E+04  0.134472960335E+04  0.130401835786E+04  0.126496920083E+04
  0.122750508500E+04  0.119155319607E+04  0.115704384680E+04  0.112391115952E+04  0.109209262999E+04
  0.106152869569E+04  0.103216292756E+04  0.100394152242E+04  0.976813570833E+03  0.950730438566E+03
  0.925646004177E+03  0.901516268568E+03  0.878299609209E+03  0.855955873651E+03  0.834447689536E+03
  0.813738611220E+03  0.793794078688E+03  0.774581856982E+03  0.756070305706E+03  0.738229715634E+03
  0.721031687229E+03  0.704449121411E+03  0.688456043334E+03  0.673027877521E+03  0.658140802878E+03
  0.643772477165E+03  0.629901179511E+03  0.616506325795E+03  0.603568247857E+03  0.591068030917E+03
  0.578987614620E+03  0.567309742113E+03  0.556017815332E+03  0.545096003264E+03  0.534529059319E+03
  0.524302451644E+03  0.514402160900E+03  0.504814777607E+03  0.495527422400E+03  0.486527723175E+03
  0.477803809129E+03  0.469344257531E+03  0.461138082037E+03  0.453174744168E+03  0.445444071696E+03
  0.437936298309E+03  0.430642003565E+03  0.423552123366E+03  0.416657912411E+03  0.409950949248E+03
  0.403423093515E+03  0.397066526181E+03  0.390873627753E+03  0.384837144032E+03  0.378949942191E+03
  0.373205248966E+03  0.367596409562E+03  0.362117054886E+03  0.356760973508E+03  0.351522183599E+03
  0.346394870526E+03  0.341373402568E+03  0.336452308973E+03  0.331626296835E+03  0.326890217987E+03
  0.322239069446E+03  0.317668000526E+03  0.313172290723E+03  0.308747349633E+03  0.304388710230E+03
  0.300092030442E+03  0.295853081193E+03  0.291667737569E+03  0.287531991012E+03  0.283441931036E+03
  0.279393744424E+03  0.275383714862E+03  0.271408221099E+03  0.267463728666E+03  0.263546791012E+03
  0.259654045490E+03  0.255782215419E+03  0.251928101610E+03  0.248088585817E+03  0.244260628036E+03
  0.240441264924E+03  0.236627608896E+03  0.232816848737E+03  0.229006248108E+03  0.225193145042E+03
  0.221374954269E+03  0.217549164450E+03  0.213713341937E+03  0.209865129216E+03  0.206002247684E+03
  0.202122498097E+03  0.198223763117E+03  0.194304007609E+03  0.190361284588E+03  0.186393732515E+03
  0.182399582823E+03  0.178377160986E+03  0.174324890260E+03  0.170241296192E+03  0.166125010626E+03
  0.161974777425E+03  0.157789454713E+03  0.153568025698E+03  0.149309600643E+03  0.145013425762E+03
  0.140678891363E+03  0.136305538660E+03  0.131893070495E+03  0.127441362681E+03  0.122950472069E+03
  0.118420652089E+03  0.113852366770E+03  0.109246303937E+03  0.104603395455E+03  0.999248334259E+02
  0.952120938178E+02  0.904669573871E+02  0.856915361287E+02  0.808883003690E+02  0.760601072614E+02
  0.712102322249E+02  0.663423999629E+02  0.614608159889E+02  0.565701963191E+02  0.516757931601E+02
  0.467834146891E+02  0.418994333803E+02  0.370307801629E+02  0.321849163675E+02  0.273697785797E+02
  0.225936869259E+02  0.178652091417E+02  0.131929739606E+02  0.858542685873E+01  0.405053007418E+01
 -0.404586409471E+00 -0.477399879794E+01 -0.905334616039E+01 -0.132400972367E+02 -0.173336190820E+02
 -0.213349007299E+02 -0.252457536499E+02 -0.290673120054E+02 -0.327977237184E+02 -0.364291062036E+02
 -0.399441471002E+02 -0.433131642027E+02 -0.464928105662E+02 -0.494277166092E+02 -0.520559150229E+02
 -0.543178633110E+02 -0.561675623171E+02 -0.575832577055E+02 -0.585749180016E+02 -0.591861725518E+02
 -0.594894464820E+02 -0.595747298739E+02 -0.595346910956E+02 -0.594506908236E+02 -0.593840744169E+02
 -0.593744841690E+02 -0.594436663629E+02 -0.596015138200E+02 -0.598515558513E+02 -0.601945937997E+02
 -0.606304485343E+02 -0.611584879955E+02 -0.617775793819E+02 -0.624859321461E+02 -0.632810358465E+02
 -0.641597384727E+02 -0.651184074727E+02 -0.661531320495E+02 -0.672598925731E+02 -0.684346995420E+02
 -0.696736692082E+02 -0.709730523329E+02 -0.723292162841E+02 -0.737385923307E+02 -0.751975865948E+02
 -0.767024623644E+02 -0.782491901019E+02 -0.798332666778E+02 -0.814494985838E+02 -0.830917504898E+02
 -0.847526743037E+02 -0.864234265262E+02 -0.880934280784E+02 -0.897502238211E+02 -0.913795444005E+02
 -0.929656963543E+02 -0.944924216358E+02 -0.959443529809E+02 -0.973091558225E+02 -0.985803271914E+02
 -0.997604852432E+02 -0.100864562931E+03 -0.101921325767E+03 -0.102969499471E+03 -0.104041750645E+03
 -0.105130023362E+03 -0.106139533011E+03 -0.106871322728E+03 -0.107092085070E+03 -0.106689689680E+03
 -0.105787854895E+03 -0.104672955631E+03 -0.103589069657E+03 -0.102623167687E+03 -0.101748144048E+03
 -0.100906739513E+03 -0.100054962736E+03 -0.991692280267E+02 -0.982405588766E+02 -0.972677169352E+02
 -0.962523427180E+02 -0.951962478597E+02 -0.941003376384E+02 -0.929645306031E+02 -0.917881536759E+02
 -0.905704344447E+02 -0.893109183350E+02 -0.880097370867E+02 -0.866677399050E+02 -0.852865212311E+02
 -0.838683774170E+02 -0.824162219839E+02 -0.809334803965E+02 -0.794239730423E+02 -0.778917980470E+02
 -0.763412108037E+02 -0.747765122026E+02 -0.732019295950E+02 -0.716215103308E+02 -0.700390137890E+02
 -0.684578152444E+02 -0.668808278829E+02 -0.653104490134E+02 -0.637485466627E+02 -0.621964927586E+02
 -0.606552500638E+02 -0.591255067705E+02 -0.576078464106E+02 -0.561029301224E+02 -0.546116653051E+02
 -0.531353362976E+02 -0.516756793859E+02 -0.502348936387E+02 -0.488155880184E+02 -0.474206721295E+02
 -0.460532024289E+02 -0.447161985015E+02 -0.434124462728E+02 -0.421443072238E+02 -0.409135543861E+02
 -0.397212554177E+02 -0.385677189132E+02 -0.374525115947E+02 -0.363745426801E+02 -0.353322004924E+02
 -0.343235186664E+02 -0.333463471885E+02 -0.323985069107E+02 -0.314779132162E+02 -0.305826625965E+02
 -0.297110828342E+02 -0.288617521360E+02 -0.280334947562E+02 -0.272253608992E+02 -0.264365977236E+02
 -0.256666167438E+02 -0.249149613343E+02 -0.241812766449E+02 -0.234652831490E+02 -0.227667542800E+02
 -0.220854981143E+02 -0.214213427784E+02 -0.207741251201E+02 -0.201436821451E+02 -0.195298447422E+02
 -0.189324332662E+02
 core charge-density
  0.124062892711E-03  0.132186161464E-03  0.140840949053E-03  0.150061996035E-03  0.159886309942E-03
  0.170353312856E-03  0.181504998533E-03  0.193386099742E-03  0.206044266417E-03  0.219530255376E-03
  0.233898132305E-03  0.249205486826E-03  0.265513661470E-03  0.282887995471E-03  0.301398084301E-03
  0.321118055982E-03  0.342126865242E-03  0.364508606649E-03  0.388352847952E-03  0.413754984906E-03
  0.440816618965E-03  0.469645959297E-03  0.500358250669E-03  0.533076228859E-03  0.567930605339E-03
  0.605060583085E-03  0.644614405510E-03  0.686749940601E-03  0.731635302499E-03  0.779449512891E-03
  0.830383204743E-03  0.884639371013E-03  0.942434161225E-03  0.100399772889E-02  0.106957513295E-02
  0.113942729675E-02  0.121383202791E-02  0.129308510324E-02  0.137750142242E-02  0.146741623502E-02
  0.156318644523E-02  0.166519199925E-02  0.177383736041E-02  0.188955307747E-02  0.201279745190E-02
  0.214405831015E-02  0.228385488752E-02  0.243273983025E-02  0.259130132342E-02  0.276016535197E-02
  0.293999810323E-02  0.313150851950E-02  0.333545100963E-02  0.355262832948E-02  0.378389464123E-02
  0.403015876232E-02  0.429238761555E-02  0.457160989210E-02  0.486891994030E-02  0.518548189359E-02
  0.552253405155E-02  0.588139352920E-02  0.626346119010E-02  0.667022687965E-02  0.710327497679E-02
  0.756429028098E-02  0.805506425586E-02  0.857750164782E-02  0.913362750252E-02  0.972559460089E-02
  0.103556913386E-01  0.110263500740E-01  0.117401559696E-01  0.124998563557E-01  0.133083706441E-01
  0.141688008209E-01  0.150844425518E-01  0.160587969302E-01  0.170955829037E-01  0.181987504152E-01
  0.193724942930E-01  0.206212689320E-01  0.219498038032E-01  0.233631198356E-01  0.248665467120E-01
  0.264657411241E-01  0.281667060340E-01  0.299758109886E-01  0.318998135371E-01  0.339458818027E-01
  0.361216182592E-01  0.384350847670E-01  0.408948289230E-01  0.435099117786E-01  0.462899369841E-01
  0.492450814150E-01  0.523861273378E-01  0.557244961746E-01  0.592722839220E-01  0.630422982829E-01
  0.670480975671E-01  0.713040314165E-01  0.758252834083E-01  0.806279155864E-01  0.857289149710E-01
  0.911462420924E-01  0.968988815847E-01  0.103006894881E+00  0.109491475038E+00  0.116375003706E+00
  0.123681110269E+00  0.131434733152E+00  0.139662183289E+00  0.148391209738E+00  0.157651067406E+00
  0.167472586832E+00  0.177888245969E+00  0.188932243872E+00  0.200640576183E+00  0.213051112280E+00
  0.226203673928E+00  0.240140115236E+00  0.254904403694E+00  0.270542702035E+00  0.287103450598E+00
  0.304637449859E+00  0.323197942732E+00  0.342840696169E+00  0.363624081580E+00  0.385609153469E+00
  0.408859725678E+00  0.433442444497E+00  0.459426857882E+00  0.486885479875E+00  0.515893849284E+00
  0.546530581567E+00  0.578877412738E+00  0.613019234048E+00  0.649044116067E+00  0.687043320636E+00
  0.727111299111E+00  0.769345675104E+00  0.813847209880E+00  0.860719748343E+00  0.910070143485E+00
  0.962008156970E+00  0.101664633340E+01  0.107409984568E+01  0.113448630876E+01  0.119792555878E+01
  0.126453939479E+01  0.133445127973E+01  0.140778599749E+01  0.148466926279E+01  0.156522728025E+01
  0.164958624942E+01  0.173787181206E+01  0.183020843819E+01  0.192671874756E+01  0.202752276299E+01
  0.213273709240E+01  0.224247403648E+01  0.235684061912E+01  0.247593753820E+01  0.259985803460E+01
  0.272868667785E+01  0.286249806758E+01  0.300135545029E+01  0.314530925218E+01  0.329439552956E+01
  0.344863433927E+01  0.360802803321E+01  0.377255948202E+01  0.394219023480E+01  0.411685862333E+01
  0.429647782112E+01  0.448093386985E+01  0.467008368764E+01  0.486375307622E+01  0.506173474667E+01
  0.526378638556E+01  0.546962878681E+01  0.567894407679E+01  0.589137406355E+01  0.610651874383E+01
  0.632393500439E+01  0.654313555724E+01  0.676358815070E+01  0.698471510117E+01  0.720589319220E+01
  0.742645398964E+01  0.764568462248E+01  0.786282908052E+01  0.807709007873E+01  0.828763153866E+01
  0.849358173442E+01  0.869403714821E+01  0.888806707637E+01  0.907471902096E+01  0.925302489503E+01
  0.942200806161E+01  0.958069121522E+01  0.972810510334E+01  0.986329807149E+01  0.998534639918E+01
  0.100933653778E+02  0.101865210610E+02  0.102640425987E+02  0.103252350440E+02  0.103694924979E+02
  0.103963114346E+02  0.104053040266E+02  0.103962112632E+02  0.103689156360E+02  0.103234531420E+02
  0.102600243367E+02  0.101790041555E+02  0.100809502077E+02  0.996660924240E+01  0.983692148605E+01
  0.969302255444E+01  0.953624265883E+01  0.936810284612E+01  0.919030804446E+01  0.900473672636E+01
  0.881342705056E+01  0.861855940347E+01  0.842243532854E+01  0.822745290744E+01  0.803607873890E+01
  0.785081674655E+01  0.767417413478E+01  0.750862489683E+01  0.735657136039E+01  0.722030432406E+01
  0.710196240311E+01  0.700349124571E+01  0.692660332402E+01  0.687273904063E+01  0.684302993355E+01
  0.683826481453E+01  0.685885973347E+01  0.690483271320E+01  0.697578422919E+01  0.707088439090E+01
  0.718886770159E+01  0.732803609384E+01  0.748627066083E+01  0.766105215581E+01  0.784948999836E+01
  0.804835929848E+01  0.825414529507E+01  0.846309457718E+01  0.867127239201E+01  0.887462522761E+01
  0.906904770622E+01  0.925045260755E+01  0.941484268706E+01  0.955838281292E+01  0.967747087190E+01
  0.976880586032E+01  0.982945161562E+01  0.985689468943E+01  0.984909499621E+01  0.980452797483E+01
  0.972221720088E+01  0.960175656069E+01  0.944332132376E+01  0.924766768217E+01  0.901612058445E+01
  0.875054994181E+01  0.845333556209E+01  0.812732142250E+01  0.777576016084E+01  0.740224891698E+01
  0.701065788237E+01  0.660505315874E+01  0.618961569748E+01  0.576855829436E+01  0.534604274529E+01
  0.492609939024E+01  0.451255133496E+01  0.410894565229E+01  0.371849371165E+01  0.334402264297E+01
  0.298793944710E+01  0.265220875206E+01  0.233834438051E+01  0.204741389584E+01  0.178005387915E+01
  0.153649204734E+01  0.131657138646E+01  0.111977323819E+01  0.945242645653E+00  0.791826970343E+00
  0.658138099336E+00  0.542633993942E+00  0.443698934016E+00  0.359703279619E+00  0.289041022556E+00
  0.230155030510E+00  0.181557881707E+00  0.141850307658E+00  0.109736415980E+00  0.840346850453E-01
  0.636843455501E-01  0.477473308615E-01  0.354063253479E-01  0.259596075585E-01  0.188134366225E-01
  0.134727132617E-01  0.953059063562E-02  0.665763084618E-02  0.459100928249E-02  0.312416763755E-02
  0.209721343279E-02  0.138826513513E-02  0.905852540178E-03  0.582405913347E-03  0.368806654270E-03
  0.229927648824E-03  0.141062240689E-03  0.851251074428E-04  0.505038277873E-04  0.294438786292E-04
  0.168595492414E-04  0.947643083979E-05  0.522577417529E-05  0.282562084232E-05  0.149718721470E-05
  0.776908518703E-06  0.394564985944E-06  0.195990877434E-06  0.951536779771E-07  0.451212246489E-07
  0.208825558836E-07  0.942548609385E-08  0.414570289118E-08  0.177545703436E-08  0.739721877935E-09
  0.299561863272E-09  0.117804510419E-09  0.449444298064E-10  0.166185445014E-10  0.594923468067E-11
  0.205973523056E-11  0.688903739486E-12  0.222331470348E-12  0.691545833078E-13  0.207054724989E-13
  0.595997134469E-14  0.164714874766E-14  0.436485333223E-15  0.110753276732E-15  0.268706560863E-16
  0.622445633965E-17  0.137459262016E-17  0.288951110664E-18  0.577245211434E-19  0.109412844330E-19
  0.196432015983E-20  0.333451664768E-21  0.534252434801E-22  0.806388314800E-23  0.114443439873E-23
  0.152413772379E-24  0.190087541465E-25  0.221543785465E-26  0.240764340318E-27  0.243427965791E-28
  0.228444842033E-29
 kinetic energy-density
  0.262449743519E+02  0.264709547615E+02  0.267055375054E+02  0.269490402954E+02  0.272017711248E+02
  0.274640792699E+02  0.277363011659E+02  0.280188258471E+02  0.283120401288E+02  0.286163693969E+02
  0.289322371975E+02  0.292601295005E+02  0.296005198078E+02  0.299539310306E+02  0.303209041873E+02
  0.307020196115E+02  0.310978783866E+02  0.315091228511E+02  0.319364252331E+02  0.323804921472E+02
  0.328420716904E+02  0.333219489433E+02  0.338209493249E+02  0.343399451272E+02  0.348798497020E+02
  0.354416258498E+02  0.360262932827E+02  0.366349034638E+02  0.372685909174E+02  0.379285272066E+02
  0.386159559922E+02  0.393321811028E+02  0.400785759391E+02  0.408565851648E+02  0.416677293561E+02
  0.425136093187E+02  0.433959102185E+02  0.443164065668E+02  0.452769673455E+02  0.462795610379E+02
  0.473262622677E+02  0.484192567917E+02  0.495608484198E+02  0.507534665514E+02  0.519996728960E+02
  0.533021677944E+02  0.546638026572E+02  0.560875812828E+02  0.575766799307E+02  0.591344450717E+02
  0.607644121405E+02  0.624703136314E+02  0.642560912083E+02  0.661259080658E+02  0.680841613989E+02
  0.701354952995E+02  0.722848201355E+02  0.745373222817E+02  0.768984828500E+02  0.793740985197E+02
  0.819702952796E+02  0.846935422467E+02  0.875507104059E+02  0.905490068844E+02  0.936961165799E+02
  0.970001312549E+02  0.100469616739E+03  0.104113634151E+03  0.107941781153E+03  0.111964188675E+03
  0.116191594358E+03  0.120635349695E+03  0.125307473533E+03  0.130220666726E+03  0.135388397083E+03
  0.140824888157E+03  0.146545204484E+03  0.152565297062E+03  0.158902022156E+03  0.165573242160E+03
  0.172597842483E+03  0.179995821525E+03  0.187788327631E+03  0.195997756148E+03  0.204647794032E+03
  0.213763502909E+03  0.223371407701E+03  0.233499569229E+03  0.244177670694E+03  0.255437119295E+03
  0.267311133542E+03  0.279834851566E+03  0.293045435577E+03  0.306982184092E+03  0.321686654593E+03
  0.337202786034E+03  0.353577022975E+03  0.370858467215E+03  0.389099010421E+03  0.408353472114E+03
  0.428679822303E+03  0.450139219130E+03  0.472796337046E+03  0.496719418481E+03  0.521980538304E+03
  0.548655772073E+03  0.576825392849E+03  0.606574108837E+03  0.637991270875E+03  0.671171095516E+03
  0.706212918195E+03  0.743221436960E+03  0.782306959138E+03  0.823585679352E+03  0.867179944362E+03
  0.913218539629E+03  0.961836971927E+03  0.101317777074E+04  0.106739079838E+04  0.112463354185E+04
  0.118507145147E+04  0.124887825299E+04  0.131623626395E+04  0.138733674167E+04  0.146238019784E+04
  0.154157673951E+04  0.162514639746E+04  0.171331944781E+04  0.180633674376E+04  0.190445002238E+04
  0.200792221464E+04  0.211702773507E+04  0.223205275896E+04  0.235329547898E+04  0.248106633924E+04
  0.261568823302E+04  0.275749670389E+04  0.290684001266E+04  0.306407934507E+04  0.322958871993E+04
  0.340375507549E+04  0.358697817334E+04  0.377967041384E+04  0.398225663935E+04  0.419517383784E+04
  0.441887070015E+04  0.465380712717E+04  0.490045358642E+04  0.515929035015E+04  0.543080660352E+04
  0.571549937497E+04  0.601387232692E+04  0.632643436016E+04  0.665369802481E+04  0.699617770841E+04
  0.735438764937E+04  0.772883966997E+04  0.812004068077E+04  0.852848991629E+04  0.895467591863E+04
  0.939907318444E+04  0.986213854938E+04  0.103443072441E+05  0.108459886162E+05  0.113675615498E+05
  0.119093694886E+05  0.124717151755E+05  0.130548550161E+05  0.136589930771E+05  0.142842747900E+05
  0.149307802902E+05  0.155985174400E+05  0.162874145722E+05  0.169973129549E+05  0.177279589925E+05
  0.184789962658E+05  0.192499573820E+05  0.200402557388E+05  0.208491772582E+05  0.216758721391E+05
  0.225193467464E+05  0.233784557141E+05  0.242518943455E+05  0.251381914445E+05  0.260357027907E+05
  0.269426051054E+05  0.278568911203E+05  0.287763653648E+05  0.296986413550E+05  0.306211399307E+05
  0.315410891659E+05  0.324555259519E+05  0.333612994508E+05  0.342550765470E+05  0.351333495839E+05
  0.359924463994E+05  0.368285429989E+05  0.376376787768E+05  0.384157746865E+05  0.391586542164E+05
  0.398620672742E+05  0.405217171796E+05  0.411332905458E+05  0.416924900521E+05  0.421950700704E+05
  0.426368748883E+05  0.430138793121E+05  0.433222313777E+05  0.435582968374E+05  0.437187048295E+05
  0.438003945068E+05  0.438006616804E+05  0.437172052327E+05  0.435481722257E+05  0.432922011981E+05
  0.429484626954E+05  0.425166962381E+05  0.419972428114E+05  0.413910720119E+05  0.406998029208E+05
  0.399257179208E+05  0.390717685914E+05  0.381415729476E+05  0.371394035102E+05  0.360701655840E+05
  0.349393655976E+05  0.337530692774E+05  0.325178499286E+05  0.312407271206E+05  0.299290966078E+05
  0.285906523471E+05  0.272333020268E+05  0.258650774474E+05  0.244940415573E+05  0.231281935095E+05
  0.217753734343E+05  0.204431678514E+05  0.191388166068E+05  0.178691219726E+05  0.166403608342E+05
  0.154582016570E+05  0.143276289852E+05  0.132528791270E+05  0.122373908863E+05  0.112837745179E+05
  0.103938006332E+05  0.956840901517E+04  0.880773563820E+04  0.811115487693E+04  0.747733347530E+04
  0.690429312566E+04  0.638947940966E+04  0.592983580017E+04  0.552188173252E+04  0.516179388091E+04
  0.484548941337E+04  0.456870987009E+04  0.432710383332E+04  0.411630694570E+04  0.393201735830E+04
  0.377006531438E+04  0.362647543597E+04  0.349752073631E+04  0.337976764421E+04  0.327011152897E+04
  0.316580269510E+04  0.306446292759E+04  0.296409297607E+04  0.286307162606E+04  0.276014703790E+04
  0.265442128831E+04  0.254532910810E+04  0.243261166352E+04  0.231628653492E+04  0.219661478544E+04
  0.207406602560E+04  0.194928230198E+04  0.182304159774E+04  0.169622149341E+04  0.156976357838E+04
  0.144463903305E+04  0.132181574505E+04  0.120222746831E+04  0.108674536004E+04  0.976152727315E+03
  0.871123642001E+03  0.772206456664E+03  0.679813568679E+03  0.594218655847E+03  0.515563961064E+03
  0.443878816367E+03  0.379107261413E+03  0.321133589414E+03  0.269787384360E+03  0.224819422329E+03
  0.185869353825E+03  0.152464465987E+03  0.124063180018E+03  0.100112302345E+03  0.800829720480E+02
  0.634818552477E+02  0.498517028345E+02  0.387709195820E+02  0.298542966671E+02  0.227541645665E+02
  0.171610693577E+02  0.128035353640E+02  0.944684871460E+01  0.689099616818E+01  0.496797140686E+01
  0.353866981537E+01  0.248957126333E+01  0.172937839259E+01  0.118574467334E+01  0.802194526569E+00
  0.535307901162E+00  0.352214322265E+00  0.228417306434E+00  0.145949820986E+00  0.918456794774E-01
  0.569004973595E-01  0.346888648551E-01  0.208011702975E-01  0.122633185439E-01  0.710462596902E-02
  0.404267615049E-02  0.225820636521E-02  0.123762289631E-02  0.665115002783E-03  0.350294298488E-03
  0.180689152324E-03  0.912260994342E-04  0.450515723632E-04  0.217475686700E-04  0.102545682851E-04
  0.471971005106E-05  0.211874399448E-05  0.926976106192E-06  0.394942468480E-06  0.163722494273E-06
  0.659797480584E-07  0.258251549573E-07  0.980822087983E-08  0.361093645630E-08  0.128730356406E-08
  0.443919967457E-09  0.147912224629E-09  0.475635908386E-10  0.147433011545E-10  0.439973044327E-11
  0.126244955848E-11  0.347846748490E-12  0.919096325349E-13  0.232557402264E-13  0.562698123348E-14
  0.130004868478E-14  0.286369731839E-15  0.600486683851E-16  0.119672351645E-16  0.226299106830E-17
  0.405352446802E-18  0.686567177174E-19  0.109761196039E-19  0.165318090025E-20  0.234132547500E-21
  0.311178848434E-22  0.387323726437E-23  0.450540294296E-24  0.488695424592E-25  0.493181081997E-26
  0.461981111452E-27
 mkinetic energy-density pseudized
  0.105605773558E-05  0.112585512396E-05  0.120026558909E-05  0.127959402026E-05  0.136416545763E-05
  0.145432642404E-05  0.155044634486E-05  0.165291906166E-05  0.176216444595E-05  0.187863011955E-05
  0.200279328866E-05  0.213516269920E-05  0.227628072131E-05  0.242672557168E-05  0.258711368271E-05
  0.275810222831E-05  0.294039181657E-05  0.313472936042E-05  0.334191113810E-05  0.356278605572E-05
  0.379825912567E-05  0.404929517473E-05  0.431692279740E-05  0.460223857043E-05  0.490641154596E-05
  0.523068804154E-05  0.557639674683E-05  0.594495416774E-05  0.633787043041E-05  0.675675546884E-05
  0.720332562134E-05  0.767941066312E-05  0.818696130355E-05  0.872805717902E-05  0.930491537400E-05
  0.991989950529E-05  0.105755294067E-04  0.112744914539E-04  0.120196495713E-04  0.128140569669E-04
  0.136609686424E-04  0.145638547301E-04  0.155264147117E-04  0.165525925759E-04  0.176465929793E-04
  0.188128984736E-04  0.200562878732E-04  0.213818558350E-04  0.227950337340E-04  0.243016119170E-04
  0.259077634282E-04  0.276200693028E-04  0.294455455312E-04  0.313916718071E-04  0.334664221739E-04
  0.356782976977E-04  0.380363612993E-04  0.405502748882E-04  0.432303389515E-04  0.460875347582E-04
  0.491335693537E-04  0.523809235281E-04  0.558429029542E-04  0.595336927058E-04  0.634684153789E-04
  0.676631930545E-04  0.721352133564E-04  0.769027998749E-04  0.819854872448E-04  0.874041011857E-04
  0.931808438317E-04  0.993393847014E-04  0.105904957680E-03  0.112904464408E-03  0.120366584512E-03
  0.128321893108E-03  0.136802986080E-03  0.145844613634E-03  0.155483822684E-03  0.165760108636E-03
  0.176715577222E-03  0.188395117011E-03  0.200846583333E-03  0.214120994354E-03  0.228272740113E-03
  0.243359805366E-03  0.259444007167E-03  0.276591248146E-03  0.294871786526E-03  0.314360523982E-03
  0.335137312530E-03  0.357287281696E-03  0.380901187299E-03  0.406075783297E-03  0.432914218196E-03
  0.461526457660E-03  0.492029735054E-03  0.524549031752E-03  0.559217589193E-03  0.596177454774E-03
  0.635580063818E-03  0.677586859999E-03  0.722369956766E-03  0.770112842479E-03  0.821011132137E-03
  0.875273368780E-03  0.933121877851E-03  0.994793678015E-03  0.106054145215E-02  0.113063458253E-02
  0.120536025434E-02  0.128502463221E-02  0.136995411440E-02  0.146049666987E-02  0.155702326373E-02
  0.165992937680E-02  0.176963662567E-02  0.188659448967E-02  0.201128215203E-02  0.214421046260E-02
  0.228592403029E-02  0.243700345372E-02  0.259806769914E-02  0.276977663559E-02  0.295283373732E-02
  0.314798896486E-02  0.335604183629E-02  0.357784470136E-02  0.381430623187E-02  0.406639514247E-02
  0.433514415726E-02  0.462165423821E-02  0.492709909279E-02  0.525272997925E-02  0.559988082904E-02
  0.596997370739E-02  0.636452463440E-02  0.678514979018E-02  0.723357212962E-02  0.771162843356E-02
  0.822127682522E-02  0.876460478259E-02  0.934383767918E-02  0.996134788829E-02  0.106196644875E-01
  0.113214836032E-01  0.120696794371E-01  0.128673160192E-01  0.137176597361E-01  0.146241926842E-01
  0.155906269025E-01  0.166209195436E-01  0.177192890429E-01  0.188902323529E-01  0.201385433111E-01
  0.214693322174E-01  0.228880466985E-01  0.244004939447E-01  0.260128644081E-01  0.277317570589E-01
  0.295642062995E-01  0.315177106471E-01  0.336002632973E-01  0.358203846944E-01  0.381871572358E-01
  0.407102622516E-01  0.434000194056E-01  0.462674286762E-01  0.493242150826E-01  0.525828763351E-01
  0.560567335979E-01  0.597599855653E-01  0.637077660642E-01  0.679162054098E-01  0.724024957555E-01
  0.771849606917E-01  0.822831293657E-01  0.877178154105E-01  0.935112009878E-01  0.996869262695E-01
  0.106270184701E+00  0.113287824413E+00  0.120768456159E+00  0.128742568204E+00  0.137242648574E+00
  0.146303315146E+00  0.155961454045E+00  0.166256366871E+00  0.177229927282E+00  0.188926747523E+00
  0.201394355472E+00  0.214683382865E+00  0.228847765342E+00  0.243944955027E+00  0.260036146363E+00
  0.277186515991E+00  0.295465477455E+00  0.314946951599E+00  0.335709653515E+00  0.357837396980E+00
  0.381419417316E+00  0.406550713681E+00  0.433332411793E+00  0.461872148172E+00  0.492284476959E+00
  0.524691300449E+00  0.559222324458E+00  0.596015539689E+00  0.635217730258E+00  0.676985010551E+00
  0.721483391569E+00  0.768889377914E+00  0.819390596518E+00  0.873186458191E+00  0.930488852975E+00
  0.991522880223E+00  0.105652761419E+01  0.112575690580E+01  0.119948022103E+01  0.127798351616E+01
  0.136157014993E+01  0.145056183221E+01  0.154529960838E+01  0.164614487844E+01  0.175348044891E+01
  0.186771161542E+01  0.198926727259E+01  0.211860104769E+01  0.225619245274E+01  0.240254804931E+01
  0.255820261857E+01  0.272372032760E+01  0.289969588161E+01  0.308675564923E+01  0.328555874639E+01
  0.349679806113E+01  0.372120119945E+01  0.395953132843E+01  0.421258788967E+01  0.448120715176E+01
  0.476626256582E+01  0.506866488310E+01  0.538936198784E+01  0.572933839211E+01  0.608961433234E+01
  0.647124439946E+01  0.687531562582E+01  0.730294494283E+01  0.775527591300E+01  0.823347462878E+01
  0.873872465910E+01  0.927222091139E+01  0.983516226366E+01  0.104287428070E+02  0.110541415243E+02
  0.117125102168E+02  0.124049594734E+02  0.131325424662E+02  0.138962363393E+02  0.146969209488E+02
  0.155353546993E+02  0.164121472207E+02  0.173277286223E+02  0.182823150711E+02  0.192758704509E+02
  0.203080638836E+02  0.213782229287E+02  0.224852823318E+02  0.236277282602E+02  0.248035380625E+02
  0.260101157106E+02  0.272442232377E+02  0.285019086841E+02  0.297784313009E+02  0.310681850541E+02
  0.323646218221E+02  0.336601760930E+02  0.349461934526E+02  0.362128657107E+02  0.374491761494E+02
  0.386428590829E+02  0.397803786973E+02  0.408469329735E+02  0.418264893633E+02  0.427018597606E+02
  0.434548231383E+02  0.440663049340E+02  0.445166227894E+02  0.447858084503E+02  0.448540153808E+02
  0.447020207520E+02  0.443118287085E+02  0.436673789430E+02  0.427553603177E+02  0.415661232343E+02
  0.400946763256E+02  0.383417424876E+02  0.363148359821E+02  0.340293061332E+02  0.315092739765E+02
  0.287883663490E+02  0.259101279745E+02  0.229279673185E+02  0.199044683134E+02  0.169098804184E+02
  0.140195879788E+02  0.113103619540E+02  0.885521976768E+01  0.671677071937E+01  0.493901476749E+01
  0.353770180999E+01  0.248957126333E+01  0.172937839259E+01  0.118574467334E+01  0.802194526569E+00
  0.535307901162E+00  0.352214322265E+00  0.228417306434E+00  0.145949820986E+00  0.918456794774E-01
  0.569004973595E-01  0.346888648551E-01  0.208011702975E-01  0.122633185439E-01  0.710462596902E-02
  0.404267615049E-02  0.225820636521E-02  0.123762289631E-02  0.665115002783E-03  0.350294298488E-03
  0.180689152324E-03  0.912260994342E-04  0.450515723632E-04  0.217475686700E-04  0.102545682851E-04
  0.471971005106E-05  0.211874399448E-05  0.926976106192E-06  0.394942468480E-06  0.163722494273E-06
  0.659797480584E-07  0.258251549573E-07  0.980822087983E-08  0.361093645630E-08  0.128730356406E-08
  0.443919967457E-09  0.147912224629E-09  0.475635908386E-10  0.147433011545E-10  0.439973044327E-11
  0.126244955848E-11  0.347846748490E-12  0.919096325349E-13  0.232557402264E-13  0.562698123348E-14
  0.130004868478E-14  0.286369731839E-15  0.600486683851E-16  0.119672351645E-16  0.226299106830E-17
  0.405352446802E-18  0.686567177174E-19  0.109761196039E-19  0.165318090025E-20  0.234132547500E-21
  0.311178848434E-22  0.387323726437E-23  0.450540294296E-24  0.488695424592E-25  0.493181081997E-26
  0.461981111452E-27
 local pseudopotential core
 -0.247010328075E+03 -0.247011613979E+03 -0.247012859436E+03 -0.247014065679E+03 -0.247015233942E+03
 -0.247016365423E+03 -0.247017461283E+03 -0.247018522641E+03 -0.247019550587E+03 -0.247020546173E+03
 -0.247021510420E+03 -0.247022444314E+03 -0.247023348815E+03 -0.247024224846E+03 -0.247025073307E+03
 -0.247025895069E+03 -0.247026690970E+03 -0.247027461830E+03 -0.247028208438E+03 -0.247028931560E+03
 -0.247029631934E+03 -0.247030310281E+03 -0.247030967296E+03 -0.247031603654E+03 -0.247032220007E+03
 -0.247032816987E+03 -0.247033395206E+03 -0.247033955260E+03 -0.247034497722E+03 -0.247035023150E+03
 -0.247035532082E+03 -0.247036025043E+03 -0.247036502540E+03 -0.247036965063E+03 -0.247037413087E+03
 -0.247037847074E+03 -0.247038267473E+03 -0.247038674712E+03 -0.247039069216E+03 -0.247039451390E+03
 -0.247039821627E+03 -0.247040180312E+03 -0.247040527814E+03 -0.247040864493E+03 -0.247041190699E+03
 -0.247041506770E+03 -0.247041813036E+03 -0.247042109811E+03 -0.247042397408E+03 -0.247042676125E+03
 -0.247042946256E+03 -0.247043208082E+03 -0.247043461877E+03 -0.247043707912E+03 -0.247043946443E+03
 -0.247044177724E+03 -0.247044402000E+03 -0.247044619511E+03 -0.247044830490E+03 -0.247045035163E+03
 -0.247045233749E+03 -0.247045426467E+03 -0.247045613526E+03 -0.247045795130E+03 -0.247045971482E+03
 -0.247046142776E+03 -0.247046309205E+03 -0.247046470958E+03 -0.247046628219E+03 -0.247046781168E+03
 -0.247046929985E+03 -0.247047074845E+03 -0.247047215920E+03 -0.247047353381E+03 -0.247047487398E+03
 -0.247047618135E+03 -0.247047745760E+03 -0.247047870437E+03 -0.247047992328E+03 -0.247048111597E+03
 -0.247048228409E+03 -0.247048342924E+03 -0.247048455309E+03 -0.247048565724E+03 -0.247048674340E+03
 -0.247048781321E+03 -0.247048886837E+03 -0.247048991061E+03 -0.247049094168E+03 -0.247049196335E+03
 -0.247049297746E+03 -0.247049398585E+03 -0.247049499042E+03 -0.247049599320E+03 -0.247049699616E+03
 -0.247049800141E+03 -0.247049901112E+03 -0.247050002752E+03 -0.247050105296E+03 -0.247050208985E+03
 -0.247050314073E+03 -0.247050420824E+03 -0.247050529514E+03 -0.247050640431E+03 -0.247050753880E+03
 -0.247050870176E+03 -0.247050989655E+03 -0.247051112670E+03 -0.247051239589E+03 -0.247051370804E+03
 -0.247051506726E+03 -0.247051647791E+03 -0.247051794458E+03 -0.247051947215E+03 -0.247052106576E+03
 -0.247052273085E+03 -0.247052447320E+03 -0.247052629893E+03 -0.247052821454E+03 -0.247053022691E+03
 -0.247053234334E+03 -0.247053457160E+03 -0.247053691992E+03 -0.247053939706E+03 -0.247054201232E+03
 -0.247054477558E+03 -0.247054769736E+03 -0.247055078881E+03 -0.247055406181E+03 -0.247055752901E+03
 -0.247056120382E+03 -0.247056510054E+03 -0.247056923438E+03 -0.247057362153E+03 -0.247057827915E+03
 -0.247058322557E+03 -0.247058848028E+03 -0.247059406399E+03 -0.247059999877E+03 -0.247060630808E+03
 -0.247061301687E+03 -0.247062015171E+03 -0.247062774087E+03 -0.247063581438E+03 -0.247064440426E+03
 -0.247065354449E+03 -0.247066327127E+03 -0.247067362306E+03 -0.247068464078E+03 -0.247069636792E+03
 -0.247070885073E+03 -0.247072213835E+03 -0.247073628301E+03 -0.247075134022E+03 -0.247076736894E+03
 -0.247078443178E+03 -0.247080259521E+03 -0.247082192984E+03 -0.247084251060E+03 -0.247086441693E+03
 -0.247088773314E+03 -0.247091254866E+03 -0.247093895816E+03 -0.247096706207E+03 -0.247099696668E+03
 -0.247102878452E+03 -0.247106263466E+03 -0.247109864300E+03 -0.247113694262E+03 -0.247117767409E+03
 -0.247122098581E+03 -0.247126703426E+03 -0.247131598442E+03 -0.247136801003E+03 -0.247142329392E+03
 -0.247148202825E+03 -0.247154441484E+03 -0.247161066536E+03 -0.247168100157E+03 -0.247175565550E+03
 -0.247183486955E+03 -0.247191889654E+03 -0.247200799970E+03 -0.247210245264E+03 -0.247220253909E+03
 -0.247230855258E+03 -0.247242079609E+03 -0.247253958136E+03 -0.247266522818E+03 -0.247279806341E+03
 -0.247293841982E+03 -0.247308663460E+03 -0.247324304764E+03 -0.247340799952E+03 -0.247358182907E+03
 -0.247376487058E+03 -0.247395745058E+03 -0.247415988408E+03 -0.247437247043E+03 -0.247459548842E+03
 -0.247482919097E+03 -0.247507379897E+03 -0.247532949458E+03 -0.247559641369E+03 -0.247587463771E+03
 -0.247616418438E+03 -0.247646499793E+03 -0.247677693834E+03 -0.247709976974E+03 -0.247743314797E+03
 -0.247777660737E+03 -0.247812954695E+03 -0.247849121569E+03 -0.247886069744E+03 -0.247923689537E+03
 -0.247961851617E+03 -0.248000405419E+03 -0.248039177583E+03 -0.248077970429E+03 -0.248116560520E+03
 -0.248154697332E+03 -0.248192102071E+03 -0.248228466679E+03 -0.248263453068E+03 -0.248296692628E+03
 -0.248327786029E+03 -0.248356303390E+03 -0.248381784816E+03 -0.248403741354E+03 -0.248421656371E+03
 -0.248434987387E+03 -0.248443168340E+03 -0.248445612299E+03 -0.248441714573E+03 -0.248430856193E+03
 -0.248412407704E+03 -0.248385733204E+03 -0.248350194538E+03 -0.248305155553E+03 -0.248249986316E+03
 -0.248184067168E+03 -0.248106792509E+03 -0.248017574196E+03 -0.247915844446E+03 -0.247801058143E+03
 -0.247672694472E+03 -0.247530257801E+03 -0.247373277794E+03 -0.247201308712E+03 -0.247013927927E+03
 -0.246810733676E+03 -0.246591342120E+03 -0.246355383776E+03 -0.246102499429E+03 -0.245832335607E+03
 -0.245544539751E+03 -0.245238755136E+03 -0.244914615659E+03 -0.244571740522E+03 -0.244209728831E+03
 -0.243828154095E+03 -0.243426558538E+03 -0.243004447107E+03 -0.242561280997E+03 -0.242096470444E+03
 -0.241609366528E+03 -0.241099251627E+03 -0.240565328180E+03 -0.240006705359E+03 -0.239422383238E+03
 -0.238811234051E+03 -0.238171980156E+03 -0.237503168313E+03 -0.236803139978E+03 -0.236069997359E+03
 -0.235301565074E+03 -0.234495347425E+03 -0.233648481436E+03 -0.232757686082E+03 -0.231819208419E+03
 -0.230828767713E+03 -0.229781499125E+03 -0.228671898999E+03 -0.227493774352E+03 -0.226240199673E+03
 -0.224903484520E+03 -0.223475155586E+03 -0.221945956808E+03 -0.220305870512E+03 -0.218544161655E+03
 -0.216649445876E+03 -0.214609780547E+03 -0.212412776680E+03 -0.210045728815E+03 -0.207495760439E+03
 -0.204749984509E+03 -0.201795682561E+03 -0.198620511670E+03 -0.195212755815E+03 -0.191561646361E+03
 -0.187657784466E+03 -0.183493705193E+03 -0.179064627815E+03 -0.174369437771E+03 -0.169411941175E+03
 -0.164202419868E+03 -0.158759490168E+03 -0.153112226530E+03 -0.147302447113E+03 -0.141386967098E+03
 -0.135439507763E+03 -0.129552323193E+03 -0.123845051750E+03 -0.118447128101E+03 -0.113492995833E+03
 -0.109117761282E+03 -0.105438698984E+03 -0.102382545538E+03 -0.100135845126E+03 -0.973501107063E+02
 -0.942841229166E+02 -0.913147955782E+02 -0.884389880703E+02 -0.856537519102E+02 -0.829562332531E+02
 -0.803436682568E+02 -0.778133812252E+02 -0.753627813230E+02 -0.729893581641E+02 -0.706906815913E+02
 -0.684643973271E+02 -0.663082258564E+02 -0.642199590619E+02 -0.621974584416E+02 -0.602386528059E+02
 -0.583415361988E+02 -0.565041657907E+02 -0.547246599758E+02 -0.530011963605E+02 -0.513320099959E+02
 -0.497153915415E+02 -0.481496854727E+02 -0.466332884579E+02 -0.451646476239E+02 -0.437422590927E+02
 -0.423646662492E+02 -0.410304584179E+02 -0.397382693061E+02 -0.384867756440E+02 -0.372746958183E+02
 -0.361007885670E+02 -0.349638517093E+02 -0.338627209180E+02 -0.327962685282E+02 -0.317634023879E+02
 -0.307630647405E+02 -0.297942311419E+02 -0.288559094132E+02 -0.279471386242E+02 -0.270669881095E+02
 -0.262145565156E+02 -0.253889708766E+02 -0.245893857211E+02 -0.238149822050E+02 -0.230649672733E+02
 -0.223385728473E+02 -0.216350550384E+02 -0.209536933856E+02 -0.202937901176E+02 -0.196546694387E+02
 -0.190356768361E+02
 pspotential valence only
 -0.115366324139E+03 -0.115367610054E+03 -0.115368855523E+03 -0.115370061780E+03 -0.115371230057E+03
 -0.115372361553E+03 -0.115373457429E+03 -0.115374518804E+03 -0.115375546768E+03 -0.115376542374E+03
 -0.115377506641E+03 -0.115378440558E+03 -0.115379345082E+03 -0.115380221138E+03 -0.115381069626E+03
 -0.115381891417E+03 -0.115382687347E+03 -0.115383458240E+03 -0.115384204883E+03 -0.115384928041E+03
 -0.115385628454E+03 -0.115386306843E+03 -0.115386963903E+03 -0.115387600308E+03 -0.115388216712E+03
 -0.115388813746E+03 -0.115389392023E+03 -0.115389952138E+03 -0.115390494666E+03 -0.115391020164E+03
 -0.115391529170E+03 -0.115392022211E+03 -0.115392499792E+03 -0.115392962405E+03 -0.115393410525E+03
 -0.115393844615E+03 -0.115394265123E+03 -0.115394672478E+03 -0.115395067107E+03 -0.115395449413E+03
 -0.115395819791E+03 -0.115396178627E+03 -0.115396526288E+03 -0.115396863139E+03 -0.115397189528E+03
 -0.115397505793E+03 -0.115397812265E+03 -0.115398109261E+03 -0.115398397094E+03 -0.115398676062E+03
 -0.115398946460E+03 -0.115399208572E+03 -0.115399462671E+03 -0.115399709030E+03 -0.115399947907E+03
 -0.115400179557E+03 -0.115400404226E+03 -0.115400622156E+03 -0.115400833581E+03 -0.115401038730E+03
 -0.115401237824E+03 -0.115401431083E+03 -0.115401618719E+03 -0.115401800938E+03 -0.115401977945E+03
 -0.115402149938E+03 -0.115402317112E+03 -0.115402479660E+03 -0.115402637768E+03 -0.115402791620E+03
 -0.115402941399E+03 -0.115403087286E+03 -0.115403229455E+03 -0.115403368082E+03 -0.115403503343E+03
 -0.115403635405E+03 -0.115403764443E+03 -0.115403890627E+03 -0.115404014124E+03 -0.115404135106E+03
 -0.115404253743E+03 -0.115404370205E+03 -0.115404484664E+03 -0.115404597291E+03 -0.115404708266E+03
 -0.115404817760E+03 -0.115404925956E+03 -0.115405033038E+03 -0.115405139191E+03 -0.115405244606E+03
 -0.115405349478E+03 -0.115405454009E+03 -0.115405558401E+03 -0.115405662873E+03 -0.115405767641E+03
 -0.115405872934E+03 -0.115405978988E+03 -0.115406086047E+03 -0.115406194367E+03 -0.115406304215E+03
 -0.115406415869E+03 -0.115406529620E+03 -0.115406645772E+03 -0.115406764645E+03 -0.115406886575E+03
 -0.115407011913E+03 -0.115407141032E+03 -0.115407274323E+03 -0.115407412198E+03 -0.115407555093E+03
 -0.115407703467E+03 -0.115407857807E+03 -0.115408018626E+03 -0.115408186471E+03 -0.115408361916E+03
 -0.115408545574E+03 -0.115408738089E+03 -0.115408940153E+03 -0.115409152491E+03 -0.115409375879E+03
 -0.115409611137E+03 -0.115409859138E+03 -0.115410120810E+03 -0.115410397138E+03 -0.115410689168E+03
 -0.115410998015E+03 -0.115411324863E+03 -0.115411670969E+03 -0.115412037674E+03 -0.115412426403E+03
 -0.115412838669E+03 -0.115413276087E+03 -0.115413740372E+03 -0.115414233351E+03 -0.115414756965E+03
 -0.115415313282E+03 -0.115415904505E+03 -0.115416532974E+03 -0.115417201183E+03 -0.115417911782E+03
 -0.115418667597E+03 -0.115419471630E+03 -0.115420327079E+03 -0.115421237344E+03 -0.115422206048E+03
 -0.115423237038E+03 -0.115424334414E+03 -0.115425502533E+03 -0.115426746031E+03 -0.115428069839E+03
 -0.115429479200E+03 -0.115430979688E+03 -0.115432577231E+03 -0.115434278129E+03 -0.115436089078E+03
 -0.115438017192E+03 -0.115440070027E+03 -0.115442255614E+03 -0.115444582477E+03 -0.115447059663E+03
 -0.115449696778E+03 -0.115452504014E+03 -0.115455492176E+03 -0.115458672728E+03 -0.115462057816E+03
 -0.115465660312E+03 -0.115469493846E+03 -0.115473572846E+03 -0.115477912579E+03 -0.115482529193E+03
 -0.115487439754E+03 -0.115492662288E+03 -0.115498215820E+03 -0.115504120425E+03 -0.115510397265E+03
 -0.115517068622E+03 -0.115524157951E+03 -0.115531689904E+03 -0.115539690376E+03 -0.115548186532E+03
 -0.115557206840E+03 -0.115566781085E+03 -0.115576940396E+03 -0.115587717253E+03 -0.115599145489E+03
 -0.115611260278E+03 -0.115624098125E+03 -0.115637696819E+03 -0.115652095396E+03 -0.115667334063E+03
 -0.115683454115E+03 -0.115700497821E+03 -0.115718508288E+03 -0.115737529292E+03 -0.115757605080E+03
 -0.115778780131E+03 -0.115801098876E+03 -0.115824605382E+03 -0.115849342974E+03 -0.115875353815E+03
 -0.115902678421E+03 -0.115931355120E+03 -0.115961419440E+03 -0.115992903431E+03 -0.116025834919E+03
 -0.116060236668E+03 -0.116096125485E+03 -0.116133511237E+03 -0.116172395789E+03 -0.116212771869E+03
 -0.116254621858E+03 -0.116297916526E+03 -0.116342613691E+03 -0.116388656848E+03 -0.116435973761E+03
 -0.116484475034E+03 -0.116534052699E+03 -0.116584578827E+03 -0.116635904200E+03 -0.116687857071E+03
 -0.116740242055E+03 -0.116792839178E+03 -0.116845403132E+03 -0.116897662771E+03 -0.116949320905E+03
 -0.117000054406E+03 -0.117049514700E+03 -0.117097328649E+03 -0.117143099882E+03 -0.117186410568E+03
 -0.117226823670E+03 -0.117263885673E+03 -0.117297129778E+03 -0.117326079533E+03 -0.117350252875E+03
 -0.117369166520E+03 -0.117382340648E+03 -0.117389303778E+03 -0.117389597767E+03 -0.117382782819E+03
 -0.117368442389E+03 -0.117346187881E+03 -0.117315663033E+03 -0.117276547865E+03 -0.117228562132E+03
 -0.117171468165E+03 -0.117105073084E+03 -0.117029230308E+03 -0.116943840394E+03 -0.116848851186E+03
 -0.116744257347E+03 -0.116630099329E+03 -0.116506461872E+03 -0.116373472147E+03 -0.116231297654E+03
 -0.116080143993E+03 -0.115920252624E+03 -0.115751898716E+03 -0.115575389153E+03 -0.115391060743E+03
 -0.115199278625E+03 -0.115000434841E+03 -0.114794946961E+03 -0.114583256641E+03 -0.114365827889E+03
 -0.114143144825E+03 -0.113915708635E+03 -0.113684033414E+03 -0.113448640556E+03 -0.113210051348E+03
 -0.112968777421E+03 -0.112725308738E+03 -0.112480098817E+03 -0.112233546957E+03 -0.111985977304E+03
 -0.111737614687E+03 -0.111488557308E+03 -0.111238746539E+03 -0.110987934310E+03 -0.110735648886E+03
 -0.110481160159E+03 -0.110223446027E+03 -0.109961161893E+03 -0.109692615777E+03 -0.109415751954E+03
 -0.109128146298E+03 -0.108827016536E+03 -0.108509250220E+03 -0.108171452404E+03 -0.107810013613E+03
 -0.107421196783E+03 -0.107001239621E+03 -0.106546466515E+03 -0.106053402166E+03 -0.105518877940E+03
 -0.104940121989E+03 -0.104314825547E+03 -0.103641180596E+03 -0.102917887735E+03 -0.102144137096E+03
 -0.101319568787E+03 -0.100444221925E+03 -0.995184825224E+02 -0.985430402364E+02 -0.975188625064E+02
 -0.964471923606E+02 -0.953295736186E+02 -0.941679046517E+02 -0.929645192415E+02 -0.917222898295E+02
 -0.904447436080E+02 -0.891366832567E+02 -0.878133652207E+02 -0.864851757718E+02 -0.851575886326E+02
 -0.838343443171E+02 -0.825090989543E+02 -0.810046734346E+02 -0.794356757612E+02 -0.778918947433E+02
 -0.763412108037E+02 -0.747765122026E+02 -0.732019295950E+02 -0.716215103308E+02 -0.700390137890E+02
 -0.684578152444E+02 -0.668808278829E+02 -0.653104490134E+02 -0.637485466627E+02 -0.621964927586E+02
 -0.606552500638E+02 -0.591255067705E+02 -0.576078464106E+02 -0.561029301224E+02 -0.546116653051E+02
 -0.531353362976E+02 -0.516756793859E+02 -0.502348936387E+02 -0.488155880184E+02 -0.474206721295E+02
 -0.460532024289E+02 -0.447161985015E+02 -0.434124462728E+02 -0.421443072237E+02 -0.409135543861E+02
 -0.397212554177E+02 -0.385677189132E+02 -0.374525115947E+02 -0.363745426801E+02 -0.353322004924E+02
 -0.343235186664E+02 -0.333463471885E+02 -0.323985069107E+02 -0.314779132162E+02 -0.305826625965E+02
 -0.297110828342E+02 -0.288617521360E+02 -0.280334947562E+02 -0.272253608992E+02 -0.264365977236E+02
 -0.256666167438E+02 -0.249149613343E+02 -0.241812766448E+02 -0.234652831490E+02 -0.227667542800E+02
 -0.220854981143E+02 -0.214213427784E+02 -0.207741251201E+02 -0.201436821451E+02 -0.195298447422E+02
 -0.189324332662E+02
 core charge-density (pseudized)
  0.389176972227E-08  0.414898611646E-08  0.442320255885E-08  0.471554262335E-08  0.502720414359E-08
  0.535946412087E-08  0.571368395655E-08  0.609131503031E-08  0.649390464693E-08  0.692310237631E-08
  0.738066681233E-08  0.786847277857E-08  0.838851901018E-08  0.894293634349E-08  0.953399644689E-08
  0.101641211288E-07  0.108358922606E-07  0.115520623559E-07  0.123155658484E-07  0.131295311156E-07
  0.139972932969E-07  0.149224079588E-07  0.159086656641E-07  0.169601075025E-07  0.180810416491E-07
  0.192760610168E-07  0.205500620746E-07  0.219082649110E-07  0.233562346225E-07  0.248999041162E-07
  0.265455984190E-07  0.283000605936E-07  0.301704793680E-07  0.321645185902E-07  0.342903486299E-07
  0.365566798559E-07  0.389727983260E-07  0.415486038351E-07  0.442946504792E-07  0.472221898993E-07
  0.503432173834E-07  0.536705210168E-07  0.572177340789E-07  0.609993909046E-07  0.650309864368E-07
  0.693290397154E-07  0.739111615620E-07  0.787961267385E-07  0.840039508739E-07  0.895559724767E-07
  0.954749403665E-07  0.101785106885E-06  0.108512327265E-06  0.115684165574E-06  0.123330007649E-06
  0.131481181504E-06  0.140171085693E-06  0.149435326155E-06  0.159311862106E-06  0.169841161570E-06
  0.181066367193E-06  0.193033473016E-06  0.205791512925E-06  0.219392761562E-06  0.233892948515E-06
  0.249351486660E-06  0.265831715597E-06  0.283401161175E-06  0.302131812166E-06  0.322100415233E-06
  0.343388789382E-06  0.366084161204E-06  0.390279522273E-06  0.416074010160E-06  0.443573314631E-06
  0.472890110696E-06  0.504144520268E-06  0.537464604345E-06  0.572986887710E-06  0.610856918312E-06
  0.651229863624E-06  0.694271146402E-06  0.740157122466E-06  0.789075803283E-06  0.841227626289E-06
  0.896826276138E-06  0.956099560211E-06  0.101929034200E-05  0.108665753617E-05  0.115847716937E-05
  0.123504351119E-05  0.131667027983E-05  0.140369192743E-05  0.149646501037E-05  0.159536965018E-05
  0.170081109085E-05  0.181322135924E-05  0.193306103504E-05  0.206082113784E-05  0.219702513885E-05
  0.234223110551E-05  0.249703398794E-05  0.266206805635E-05  0.283800949965E-05  0.302557919566E-05
  0.322554566448E-05  0.343872821694E-05  0.366600031114E-05  0.390829313075E-05  0.416659939980E-05
  0.444197744952E-05  0.473555555382E-05  0.504853655137E-05  0.538220277295E-05  0.573792129446E-05
  0.611714953685E-05  0.652144123623E-05  0.695245280820E-05  0.741195013278E-05  0.790181578753E-05
  0.842405675849E-05  0.898081266048E-05  0.957436450047E-05  0.102071440198E-04  0.108817436533E-04
  0.116009271467E-04  0.123676408744E-04  0.131850259058E-04  0.140564308677E-04  0.149854256562E-04
  0.159758160544E-04  0.170316593151E-04  0.181572807721E-04  0.193572915486E-04  0.206366074346E-04
  0.220004690099E-04  0.234544630961E-04  0.250045456238E-04  0.266570660093E-04  0.284187931395E-04
  0.302969430719E-04  0.322992085612E-04  0.344337905341E-04  0.367094316405E-04  0.391354520164E-04
  0.417217874055E-04  0.444790297941E-04  0.474184707244E-04  0.505521474623E-04  0.538928922073E-04
  0.574543845449E-04  0.612512073528E-04  0.652989063896E-04  0.696140538057E-04  0.742143158351E-04
  0.791185249401E-04  0.843467567031E-04  0.899204117738E-04  0.958623032034E-04  0.102196749518E-03
  0.108949673907E-03  0.116148709921E-03  0.123823314112E-03  0.132004886056E-03  0.140726896255E-03
  0.150025022412E-03  0.159937294636E-03  0.170504250152E-03  0.181769098130E-03  0.193777895291E-03
  0.206579732981E-03  0.220226936459E-03  0.234775277181E-03  0.250284198911E-03  0.266817058562E-03
  0.284441382686E-03  0.303229140635E-03  0.323257035438E-03  0.344606813532E-03  0.367365594536E-03
  0.391626222331E-03  0.417487638801E-03  0.445055281639E-03  0.474441507743E-03  0.505766043779E-03
  0.539156465611E-03  0.574748708367E-03  0.612687609037E-03  0.653127483582E-03  0.696232740659E-03
  0.742178534165E-03  0.791151456937E-03  0.843350278063E-03  0.898986726365E-03  0.958286322781E-03
  0.102148926447E-02  0.108885136360E-02  0.116064504400E-02  0.123716039879E-02  0.131870631251E-02
  0.140561165114E-02  0.149822652385E-02  0.159692361994E-02  0.170209962529E-02  0.181417672190E-02
  0.193360417498E-02  0.206086001161E-02  0.219645279522E-02  0.234092350032E-02  0.249484749165E-02
  0.265883661219E-02  0.283354138411E-02  0.301965332691E-02  0.321790739661E-02  0.342908454972E-02
  0.365401443532E-02  0.389357821835E-02  0.414871153627E-02  0.442040759110E-02  0.470972037769E-02
  0.501776804810E-02  0.534573641109E-02  0.569488256387E-02  0.606653865197E-02  0.646211575091E-02
  0.688310786117E-02  0.733109600513E-02  0.780775241173E-02  0.831484477068E-02  0.885424053425E-02
  0.942791123948E-02  0.100379368183E-01  0.106865098570E-01  0.113759397581E-01  0.121086567520E-01
  0.128872156926E-01  0.137142995643E-01  0.145927226136E-01  0.155254330057E-01  0.165155148908E-01
  0.175661897486E-01  0.186808168609E-01  0.198628927383E-01  0.211160493069E-01  0.224440506332E-01
  0.238507879359E-01  0.253402726031E-01  0.269166268979E-01  0.285840719981E-01  0.303469129753E-01
  0.322095202728E-01  0.341763071992E-01  0.362517028991E-01  0.384401202164E-01  0.407459178073E-01
  0.431733558083E-01  0.457265443079E-01  0.484093838198E-01  0.512254969026E-01  0.541781500307E-01
  0.572701647826E-01  0.605038173925E-01  0.638807257039E-01  0.674017225831E-01  0.710667148942E-01
  0.748745272251E-01  0.788227296821E-01  0.829074492618E-01  0.871231645709E-01  0.914624840102E-01
  0.959159079909E-01  0.100471576324E+00  0.105115002638E+00  0.109828798570E+00  0.114592391526E+00
  0.119381741117E+00  0.124169060879E+00  0.128922553663E+00  0.133606171139E+00  0.138179410177E+00
  0.142597161489E+00  0.146809628759E+00  0.150762339558E+00  0.154396272576E+00  0.157648128868E+00
  0.160450777907E+00  0.162733911873E+00  0.164424943568E+00  0.165450184104E+00  0.165736335672E+00
  0.165212331455E+00  0.163811548393E+00  0.161474408026E+00  0.158151365006E+00  0.153806260784E+00
  0.148419990255E+00  0.141994390488E+00  0.134556211973E+00  0.126160973347E+00  0.116896430205E+00
  0.106885308224E+00  0.962868626958E-01  0.852967352591E-01  0.741444910154E-01  0.630881462671E-01
  0.524049535918E-01  0.423777170353E-01  0.332759913320E-01  0.253317062375E-01  0.187090858294E-01
  0.134692408654E-01  0.953059063562E-02  0.665763084618E-02  0.459100928249E-02  0.312416763755E-02
  0.209721343279E-02  0.138826513513E-02  0.905852540178E-03  0.582405913347E-03  0.368806654270E-03
  0.229927648824E-03  0.141062240689E-03  0.851251074428E-04  0.505038277873E-04  0.294438786292E-04
  0.168595492414E-04  0.947643083979E-05  0.522577417529E-05  0.282562084232E-05  0.149718721470E-05
  0.776908518703E-06  0.394564985944E-06  0.195990877434E-06  0.951536779771E-07  0.451212246489E-07
  0.208825558836E-07  0.942548609385E-08  0.414570289118E-08  0.177545703436E-08  0.739721877935E-09
  0.299561863272E-09  0.117804510419E-09  0.449444298064E-10  0.166185445014E-10  0.594923468067E-11
  0.205973523056E-11  0.688903739486E-12  0.222331470348E-12  0.691545833078E-13  0.207054724989E-13
  0.595997134469E-14  0.164714874766E-14  0.436485333223E-15  0.110753276732E-15  0.268706560863E-16
  0.622445633965E-17  0.137459262016E-17  0.288951110664E-18  0.577245211434E-19  0.109412844330E-19
  0.196432015983E-20  0.333451664768E-21  0.534252434801E-22  0.806388314800E-23  0.114443439873E-23
  0.152413772379E-24  0.190087541465E-25  0.221543785465E-26  0.240764340318E-27  0.243427965791E-28
  0.228444842033E-29
 pseudo wavefunction
  0.151874593339E-03  0.156813176209E-03  0.161912349470E-03  0.167177335122E-03  0.172613524971E-03
  0.178226486147E-03  0.184021966816E-03  0.190005902053E-03  0.196184419932E-03  0.202563847793E-03
  0.209150718729E-03  0.215951778269E-03  0.222973991292E-03  0.230224549157E-03  0.237710877067E-03
  0.245440641677E-03  0.253421758938E-03  0.261662402212E-03  0.270171010635E-03  0.278956297765E-03
  0.288027260501E-03  0.297393188301E-03  0.307063672690E-03  0.317048617087E-03  0.327358246946E-03
  0.338003120225E-03  0.348994138202E-03  0.360342556637E-03  0.372059997298E-03  0.384158459863E-03
  0.396650334212E-03  0.409548413110E-03  0.422865905312E-03  0.436616449087E-03  0.450814126187E-03
  0.465473476268E-03  0.480609511777E-03  0.496237733327E-03  0.512374145574E-03  0.529035273603E-03
  0.546238179854E-03  0.564000481592E-03  0.582340368954E-03  0.601276623570E-03  0.620828637803E-03
  0.641016434604E-03  0.661860688022E-03  0.683382744370E-03  0.705604644090E-03  0.728549144320E-03
  0.752239742203E-03  0.776700698948E-03  0.801957064676E-03  0.828034704070E-03  0.854960322868E-03
  0.882761495207E-03  0.911466691861E-03  0.941105309401E-03  0.971707700296E-03  0.100330520399E-02
  0.103593017902E-02  0.106961603612E-02  0.110439727244E-02  0.114030950691E-02  0.117738951669E-02
  0.121567527480E-02  0.125520598907E-02  0.129602214225E-02  0.133816553348E-02  0.138167932107E-02
  0.142660806675E-02  0.147299778124E-02  0.152089597141E-02  0.157035168892E-02  0.162141558043E-02
  0.167413993950E-02  0.172857876011E-02  0.178478779195E-02  0.184282459754E-02  0.190274861114E-02
  0.196462119964E-02  0.202850572537E-02  0.209446761100E-02  0.216257440655E-02  0.223289585852E-02
  0.230550398135E-02  0.238047313113E-02  0.245788008175E-02  0.253780410352E-02  0.262032704433E-02
  0.270553341346E-02  0.279351046810E-02  0.288434830273E-02  0.297813994132E-02  0.307498143263E-02
  0.317497194849E-02  0.327821388541E-02  0.338481296936E-02  0.349487836404E-02  0.360852278268E-02
  0.372586260335E-02  0.384701798820E-02  0.397211300642E-02  0.410127576130E-02  0.423463852131E-02
  0.437233785556E-02  0.451451477360E-02  0.466131486974E-02  0.481288847208E-02  0.496939079642E-02
  0.513098210510E-02  0.529782787107E-02  0.547009894718E-02  0.564797174114E-02  0.583162839597E-02
  0.602125697644E-02  0.621705166152E-02  0.641921294305E-02  0.662794783094E-02  0.684347006489E-02
  0.706600033317E-02  0.729576649829E-02  0.753300383015E-02  0.777795524670E-02  0.803087156236E-02
  0.829201174455E-02  0.856164317854E-02  0.884004194080E-02  0.912749308135E-02  0.942429091510E-02
  0.973073932273E-02  0.100471520613E-01  0.103738530849E-01  0.107111768755E-01  0.110594687849E-01
  0.114190853875E-01  0.117903948443E-01  0.121737772789E-01  0.125696251657E-01  0.129783437304E-01
  0.134003513636E-01  0.138360800474E-01  0.142859757967E-01  0.147504991132E-01  0.152301254555E-01
  0.157253457234E-01  0.162366667580E-01  0.167646118580E-01  0.173097213126E-01  0.178725529511E-01
  0.184536827105E-01  0.190537052212E-01  0.196732344115E-01  0.203129041308E-01  0.209733687938E-01
  0.216553040439E-01  0.223594074388E-01  0.230863991575E-01  0.238370227295E-01  0.246120457871E-01
  0.254122608421E-01  0.262384860860E-01  0.270915662165E-01  0.279723732886E-01  0.288818075941E-01
  0.298207985669E-01  0.307903057173E-01  0.317913195956E-01  0.328248627853E-01  0.338919909261E-01
  0.349937937701E-01  0.361313962690E-01  0.373059596947E-01  0.385186827946E-01  0.397708029807E-01
  0.410635975561E-01  0.423983849762E-01  0.437765261491E-01  0.451994257732E-01  0.466685337152E-01
  0.481853464269E-01  0.497514084042E-01  0.513683136866E-01  0.530377074003E-01  0.547612873443E-01
  0.565408056199E-01  0.583780703054E-01  0.602749471766E-01  0.622333614715E-01  0.642552997035E-01
  0.663428115193E-01  0.684980116051E-01  0.707230816395E-01  0.730202722937E-01  0.753919052785E-01
  0.778403754389E-01  0.803681528947E-01  0.829777852263E-01  0.856718997066E-01  0.884532055756E-01
  0.913244963573E-01  0.942886522176E-01  0.973486423601E-01  0.100507527457E+00  0.103768462114E+00
  0.107134697362E+00  0.110609583176E+00  0.114196571014E+00  0.117899216365E+00  0.121721181315E+00
  0.125666237107E+00  0.129738266693E+00  0.133941267278E+00  0.138279352825E+00  0.142756756533E+00
  0.147377833261E+00  0.152147061877E+00  0.157069047538E+00  0.162148523859E+00  0.167390354966E+00
  0.172799537401E+00  0.178381201859E+00  0.184140614731E+00  0.190083179408E+00  0.196214437332E+00
  0.202540068741E+00  0.209065893063E+00  0.215797868930E+00  0.222742093739E+00  0.229904802720E+00
  0.237292367433E+00  0.244911293639E+00  0.252768218462E+00  0.260869906752E+00  0.269223246573E+00
  0.277835243697E+00  0.286713015013E+00  0.295863780710E+00  0.305294855118E+00  0.315013636052E+00
  0.325027592512E+00  0.335344250555E+00  0.345971177165E+00  0.356915961901E+00  0.368186196129E+00
  0.379789449563E+00  0.391733243895E+00  0.404025023203E+00  0.416672120850E+00  0.429681722553E+00
  0.443060825261E+00  0.456816191477E+00  0.470954298623E+00  0.485481283026E+00  0.500402878063E+00
  0.515724346003E+00  0.531450403023E+00  0.547585136893E+00  0.564131916759E+00  0.581093294465E+00
  0.598470896826E+00  0.616265308249E+00  0.634475943107E+00  0.653100907257E+00  0.672136848124E+00
  0.691578792779E+00  0.711419973497E+00  0.731651640334E+00  0.752262860329E+00  0.773240303069E+00
  0.794568012462E+00  0.816227164770E+00  0.838195813128E+00  0.860448619076E+00  0.882956571924E+00
  0.905686697153E+00  0.928601755527E+00  0.951659935095E+00  0.974814538901E+00  0.998013671933E+00
  0.102119993168E+01  0.104431010756E+01  0.106727489565E+01  0.109001863612E+01  0.111245908242E+01
  0.113450721227E+01  0.115606709246E+01  0.117703581082E+01  0.119730349044E+01  0.121675340311E+01
  0.123526220036E+01  0.125270028220E+01  0.126893232489E+01  0.128381799000E+01  0.129721283732E+01
  0.130896946410E+01  0.131893889120E+01  0.132697221446E+01  0.133292253493E+01  0.133664717509E+01
  0.133801017892E+01  0.133688508190E+01  0.133315792057E+01  0.132673043176E+01  0.131752336692E+01
  0.130547981723E+01  0.129056841074E+01  0.127278620281E+01  0.125216103710E+01  0.122875310681E+01
  0.120265539728E+01  0.117399264408E+01  0.114291840044E+01  0.110960977963E+01  0.107425943037E+01
  0.103706432636E+01  0.998211017112E+00  0.957857110684E+00  0.916108956586E+00  0.873023114334E+00
  0.828853491730E+00  0.783955858280E+00  0.738678734137E+00  0.693355541360E+00  0.648301612096E+00
  0.603811567465E+00  0.560157065678E+00  0.517584915472E+00  0.476315553681E+00  0.436541891517E+00
  0.398428541937E+00  0.362111447505E+00  0.327697930839E+00  0.295267186000E+00  0.264871216826E+00
  0.236536209088E+00  0.210264299827E+00  0.186035683916E+00  0.163810978618E+00  0.143533754980E+00
  0.125133141504E+00  0.108526410581E+00  0.936214702907E-01  0.803192012116E-01  0.685155976685E-01
  0.581036926752E-01  0.489752635553E-01  0.410223286342E-01  0.341384532681E-01  0.282198855141E-01
  0.231665389212E-01  0.188828341093E-01  0.152784042950E-01  0.122686647068E-01  0.977524316117E-02
  0.772626928767E-02  0.605652257225E-02  0.470744365637E-02  0.362701819113E-02  0.276954711518E-02
  0.209532087443E-02  0.157021748167E-02  0.116524532211E-02  0.856051332313E-03  0.622413818104E-03
  0.447736995875E-03  0.318561621769E-03  0.224103079506E-03  0.155825261295E-03  0.107055684091E-03
  0.726446741783E-04
 ae wavefunction
  0.128694369923E-02  0.132840807435E-02  0.137120656352E-02  0.141538197208E-02  0.146097847126E-02
  0.150804164128E-02  0.155661851576E-02  0.160675762747E-02  0.165850905552E-02  0.171192447399E-02
  0.176705720200E-02  0.182396225533E-02  0.188269639962E-02  0.194331820518E-02  0.200588810342E-02
  0.207046844502E-02  0.213712355985E-02  0.220591981865E-02  0.227692569662E-02  0.235021183885E-02
  0.242585112774E-02  0.250391875241E-02  0.258449228019E-02  0.266765173013E-02  0.275347964884E-02
  0.284206118842E-02  0.293348418668E-02  0.302783924984E-02  0.312521983744E-02  0.322572234983E-02
  0.332944621814E-02  0.343649399691E-02  0.354697145921E-02  0.366098769466E-02  0.377865521007E-02
  0.390009003299E-02  0.402541181819E-02  0.415474395702E-02  0.428821368992E-02  0.442595222191E-02
  0.456809484134E-02  0.471478104182E-02  0.486615464749E-02  0.502236394157E-02  0.518356179846E-02
  0.534990581919E-02  0.552155847055E-02  0.569868722774E-02  0.588146472074E-02  0.607006888437E-02
  0.626468311226E-02  0.646549641443E-02  0.667270357904E-02  0.688650533784E-02  0.710710853576E-02
  0.733472630448E-02  0.756957824004E-02  0.781189058459E-02  0.806189641222E-02  0.831983581900E-02
  0.858595611710E-02  0.886051203312E-02  0.914376591061E-02  0.943598791662E-02  0.973745625283E-02
  0.100484573699E-01  0.103692861869E-01  0.107002463142E-01  0.110416502804E-01  0.113938197632E-01
  0.117570858239E-01  0.121317891461E-01  0.125182802768E-01  0.129169198727E-01  0.133280789477E-01
  0.137521391251E-01  0.141894928915E-01  0.146405438540E-01  0.151057069994E-01  0.155854089553E-01
  0.160800882531E-01  0.165901955921E-01  0.171161941051E-01  0.176585596231E-01  0.182177809415E-01
  0.187943600848E-01  0.193888125704E-01  0.200016676704E-01  0.206334686713E-01  0.212847731300E-01
  0.219561531260E-01  0.226481955085E-01  0.233615021377E-01  0.240966901189E-01  0.248543920286E-01
  0.256352561315E-01  0.264399465864E-01  0.272691436408E-01  0.281235438111E-01  0.290038600484E-01
  0.299108218865E-01  0.308451755725E-01  0.318076841751E-01  0.327991276709E-01  0.338203030054E-01
  0.348720241255E-01  0.359551219832E-01  0.370704445044E-01  0.382188565235E-01  0.394012396763E-01
  0.406184922533E-01  0.418715290034E-01  0.431612808902E-01  0.444886947924E-01  0.458547331463E-01
  0.472603735251E-01  0.487066081498E-01  0.501944433273E-01  0.517248988094E-01  0.532990070678E-01
  0.549178124776E-01  0.565823704047E-01  0.582937461882E-01  0.600530140124E-01  0.618612556596E-01
  0.637195591360E-01  0.656290171628E-01  0.675907255225E-01  0.696057812522E-01  0.716752806741E-01
  0.738003172516E-01  0.759819792623E-01  0.782213472750E-01  0.805194914199E-01  0.828774684399E-01
  0.852963185098E-01  0.877770618104E-01  0.903206948433E-01  0.929281864744E-01  0.956004736872E-01
  0.983384570357E-01  0.101142995777E+00  0.104014902668E+00  0.106954938418E+00  0.109963805759E+00
  0.113042143150E+00  0.116190518056E+00  0.119409419826E+00  0.122699252120E+00  0.126060324882E+00
  0.129492845838E+00  0.132996911501E+00  0.136572497660E+00  0.140219449348E+00  0.143937470254E+00
  0.147726111578E+00  0.151584760304E+00  0.155512626877E+00  0.159508732278E+00  0.163571894471E+00
  0.167700714221E+00  0.171893560272E+00  0.176148553882E+00  0.180463552695E+00  0.184836133974E+00
  0.189263577175E+00  0.193742845880E+00  0.198270569099E+00  0.202843021943E+00  0.207456105713E+00
  0.212105327403E+00  0.216785778670E+00  0.221492114304E+00  0.226218530245E+00  0.230958741198E+00
  0.235705957925E+00  0.240452864275E+00  0.245191594051E+00  0.249913707800E+00  0.254610169646E+00
  0.259271324288E+00  0.263886874302E+00  0.268445857902E+00  0.272936627329E+00  0.277346828062E+00
  0.281663379055E+00  0.285872454225E+00  0.289959465440E+00  0.293909047279E+00  0.297705043846E+00
  0.301330497959E+00  0.304767643042E+00  0.307997898089E+00  0.311001866077E+00  0.313759336238E+00
  0.316249290632E+00  0.318449915455E+00  0.320338617595E+00  0.321892046905E+00  0.323086124744E+00
  0.323896079311E+00  0.324296488353E+00  0.324261329795E+00  0.323764040915E+00  0.322777586625E+00
  0.321274537483E+00  0.319227158023E+00  0.316607505988E+00  0.313387543045E+00  0.309539257534E+00
  0.305034799762E+00  0.299846630330E+00  0.293947681901E+00  0.287311534793E+00  0.279912606644E+00
  0.271726356385E+00  0.262729502568E+00  0.252900256038E+00  0.242218566780E+00  0.230666384607E+00
  0.218227933231E+00  0.204889997009E+00  0.190642219542E+00  0.175477412999E+00  0.159391876870E+00
  0.142385724564E+00  0.124463215978E+00  0.105633093874E+00  0.859089215222E-01  0.653094187127E-01
  0.438587927840E-01  0.215870609078E-01 -0.146964055813E-02 -0.252687641390E-01 -0.497610813117E-01
 -0.748904388835E-01 -0.100593545243E+00 -0.126799788833E+00 -0.153431089746E+00 -0.180401784184E+00
 -0.207618541450E+00 -0.234980314739E+00 -0.262378330601E+00 -0.289696127027E+00 -0.316809655231E+00
 -0.343587463914E+00 -0.369890984727E+00 -0.395574933078E+00 -0.420487829924E+00 -0.444472640928E+00
 -0.467367523590E+00 -0.489006672035E+00 -0.509221252693E+00 -0.527840427575E+00 -0.544692463784E+00
 -0.559605928045E+00 -0.572410962037E+00 -0.582940632301E+00 -0.591032345822E+00 -0.596529320851E+00
 -0.599282101176E+00 -0.599150101954E+00 -0.596003174091E+00 -0.589723174772E+00 -0.580205530197E+00
 -0.567360777158E+00 -0.551116068780E+00 -0.531416629265E+00 -0.508227141392E+00 -0.481533049711E+00
 -0.451341760746E+00 -0.417683720470E+00 -0.380613347555E+00 -0.340209799672E+00 -0.296577549018E+00
 -0.249846742452E+00 -0.200173322660E+00 -0.147738888167E+00 -0.927502746351E-01 -0.354388458290E-01
  0.239405089752E-01  0.851106653928E-01  0.147773829428E+00  0.211613364656E+00  0.276295879379E+00
  0.341473602820E+00  0.406787134704E+00  0.471868729973E+00  0.536346350339E+00  0.599848680966E+00
  0.662010953260E+00  0.722480468612E+00  0.780919334386E+00  0.837001503042E+00  0.890404038550E+00
  0.940798430000E+00  0.987850834627E+00  0.103123408149E+01  0.107064416077E+01  0.110581219554E+01
  0.113650964788E+01  0.116254959824E+01  0.118378700650E+01  0.120011919792E+01  0.121148670356E+01
  0.121787416827E+01  0.121931096541E+01  0.121587121655E+01  0.120767303250E+01  0.119487690349E+01
  0.117768327091E+01  0.115632936772E+01  0.113108545395E+01  0.110225058128E+01  0.107014802107E+01
  0.103512048278E+01  0.997525239590E+00  0.957729264165E+00  0.916104466952E+00  0.873023114334E+00
  0.828853491730E+00  0.783955858280E+00  0.738678734137E+00  0.693355541360E+00  0.648301612096E+00
  0.603811567465E+00  0.560157065678E+00  0.517584915472E+00  0.476315553681E+00  0.436541891517E+00
  0.398428541937E+00  0.362111447505E+00  0.327697930839E+00  0.295267186000E+00  0.264871216826E+00
  0.236536209088E+00  0.210264299827E+00  0.186035683916E+00  0.163810978618E+00  0.143533754980E+00
  0.125133141504E+00  0.108526410581E+00  0.936214702907E-01  0.803192012116E-01  0.685155976685E-01
  0.581036926752E-01  0.489752635553E-01  0.410223286342E-01  0.341384532681E-01  0.282198855141E-01
  0.231665389212E-01  0.188828341093E-01  0.152784042950E-01  0.122686647068E-01  0.977524316117E-02
  0.772626928767E-02  0.605652257225E-02  0.470744365637E-02  0.362701819113E-02  0.276954711518E-02
  0.209532087443E-02  0.157021748167E-02  0.116524532211E-02  0.856051332313E-03  0.622413818104E-03
  0.447736995875E-03  0.318561621769E-03  0.224103079506E-03  0.155825261295E-03  0.107055684091E-03
  0.726446741783E-04
 pseudo wavefunction
  0.158123296801E-03  0.163265071917E-03  0.168574044731E-03  0.174055652093E-03  0.179715507649E-03
  0.185559407585E-03  0.191593336563E-03  0.197823473855E-03  0.204256199665E-03  0.210898101665E-03
  0.217755981744E-03  0.224836862968E-03  0.232147996777E-03  0.239696870412E-03  0.247491214577E-03
  0.255539011361E-03  0.263848502409E-03  0.272428197366E-03  0.281286882586E-03  0.290433630137E-03
  0.299877807085E-03  0.309629085091E-03  0.319697450314E-03  0.330093213636E-03  0.340827021226E-03
  0.351909865437E-03  0.363353096068E-03  0.375168431983E-03  0.387367973114E-03  0.399964212854E-03
  0.412970050848E-03  0.426398806205E-03  0.440264231140E-03  0.454580525052E-03  0.469362349072E-03
  0.484624841070E-03  0.500383631164E-03  0.516654857724E-03  0.533455183897E-03  0.550801814675E-03
  0.568712514510E-03  0.587205625512E-03  0.606300086228E-03  0.626015451038E-03  0.646371910180E-03
  0.667390310428E-03  0.689092176440E-03  0.711499732798E-03  0.734635926773E-03  0.758524451821E-03
  0.783189771846E-03  0.808657146258E-03  0.834952655836E-03  0.862103229436E-03  0.890136671574E-03
  0.919081690891E-03  0.948967929562E-03  0.979825993645E-03  0.101168748443E-02  0.104458503078E-02
  0.107855232259E-02  0.111362414524E-02  0.114983641524E-02  0.118722621701E-02  0.122583184085E-02
  0.126569282216E-02  0.130684998193E-02  0.134934546852E-02  0.139322280085E-02  0.143852691294E-02
  0.148530419996E-02  0.153360256568E-02  0.158347147160E-02  0.163496198756E-02  0.168812684402E-02
  0.174302048609E-02  0.179969912929E-02  0.185822081707E-02  0.191864548029E-02  0.198103499858E-02
  0.204545326370E-02  0.211196624496E-02  0.218064205679E-02  0.225155102848E-02  0.232476577618E-02
  0.240036127729E-02  0.247841494721E-02  0.255900671862E-02  0.264221912333E-02  0.272813737679E-02
  0.281684946532E-02  0.290844623626E-02  0.300302149092E-02  0.310067208068E-02  0.320149800613E-02
  0.330560251945E-02  0.341309223017E-02  0.352407721427E-02  0.363867112692E-02  0.375699131883E-02
  0.387915895639E-02  0.400529914574E-02  0.413554106081E-02  0.427001807561E-02  0.440886790074E-02
  0.455223272438E-02  0.470025935784E-02  0.485309938583E-02  0.501090932167E-02  0.517385076745E-02
  0.534209057946E-02  0.551580103899E-02  0.569516002862E-02  0.588035121433E-02  0.607156423340E-02
  0.626899488856E-02  0.647284534827E-02  0.668332435368E-02  0.690064743217E-02  0.712503711786E-02
  0.735672317934E-02  0.759594285467E-02  0.784294109411E-02  0.809797081067E-02  0.836129313879E-02
  0.863317770140E-02  0.891390288567E-02  0.920375612767E-02  0.950303420624E-02  0.981204354643E-02
  0.101311005327E-01  0.104605318324E-01  0.108006747293E-01  0.111518774688E-01  0.115144996131E-01
  0.118889124090E-01  0.122754991668E-01  0.126746556517E-01  0.130867904881E-01  0.135123255765E-01
  0.139516965242E-01  0.144053530896E-01  0.148737596414E-01  0.153573956314E-01  0.158567560842E-01
  0.163723521010E-01  0.169047113810E-01  0.174543787583E-01  0.180219167570E-01  0.186079061636E-01
  0.192129466182E-01  0.198376572238E-01  0.204826771758E-01  0.211486664117E-01  0.218363062807E-01
  0.225463002356E-01  0.232793745461E-01  0.240362790350E-01  0.248177878376E-01  0.256247001852E-01
  0.264578412138E-01  0.273180627976E-01  0.282062444089E-01  0.291232940058E-01  0.300701489465E-01
  0.310477769332E-01  0.320571769851E-01  0.330993804412E-01  0.341754519948E-01  0.352864907599E-01
  0.364336313701E-01  0.376180451113E-01  0.388409410892E-01  0.401035674322E-01  0.414072125304E-01
  0.427532063126E-01  0.441429215605E-01  0.455777752633E-01  0.470592300112E-01  0.485887954305E-01
  0.501680296604E-01  0.517985408725E-01  0.534819888335E-01  0.552200865133E-01  0.570146017371E-01
  0.588673588842E-01  0.607802406334E-01  0.627551897552E-01  0.647942109530E-01  0.668993727512E-01
  0.690728094338E-01  0.713167230308E-01  0.736333853552E-01  0.760251400883E-01  0.784944049154E-01
  0.810436737102E-01  0.836755187680E-01  0.863925930871E-01  0.891976326971E-01  0.920934590341E-01
  0.950829813590E-01  0.981691992201E-01  0.101355204955E+00  0.104644186232E+00  0.108039428624E+00
  0.111544318215E+00  0.115162344235E+00  0.118897101713E+00  0.122752294151E+00  0.126731736205E+00
  0.130839356369E+00  0.135079199655E+00  0.139455430256E+00  0.143972334187E+00  0.148634321881E+00
  0.153445930744E+00  0.158411827635E+00  0.163536811269E+00  0.168825814518E+00  0.174283906582E+00
  0.179916295025E+00  0.185728327632E+00  0.191725494063E+00  0.197913427284E+00  0.204297904716E+00
  0.210884849088E+00  0.217680328928E+00  0.224690558666E+00  0.231921898272E+00  0.239380852393E+00
  0.247074068907E+00  0.255008336832E+00  0.263190583514E+00  0.271627871001E+00  0.280327391507E+00
  0.289296461876E+00  0.298542516922E+00  0.308073101517E+00  0.317895861305E+00  0.328018531886E+00
  0.338448926301E+00  0.349194920663E+00  0.360264437716E+00  0.371665428136E+00  0.383405849333E+00
  0.395493641520E+00  0.407936700770E+00  0.420742848792E+00  0.433919799097E+00  0.447475119240E+00
  0.461416188764E+00  0.475750152480E+00  0.490483868658E+00  0.505623851706E+00  0.521176208866E+00
  0.537146570443E+00  0.553540013057E+00  0.570360975362E+00  0.587613165691E+00  0.605299461030E+00
  0.623421796729E+00  0.641981046342E+00  0.660976890979E+00  0.680407677568E+00  0.700270265428E+00
  0.720559860588E+00  0.741269837336E+00  0.762391546530E+00  0.783914110300E+00  0.805824202883E+00
  0.828105817475E+00  0.850740019156E+00  0.873704684195E+00  0.896974226294E+00  0.920519310671E+00
  0.944306557297E+00  0.968298235064E+00  0.992451949208E+00  0.101672032501E+01  0.104105069151E+01
  0.106538476981E+01  0.108965837172E+01  0.111380111523E+01  0.113773616507E+01  0.116138000747E+01
  0.118464227016E+01  0.120742560003E+01  0.122962561267E+01  0.125113092992E+01  0.127182332317E+01
  0.129157798216E+01  0.131026393045E+01  0.132774461048E+01  0.134387866184E+01  0.135852091711E+01
  0.137152363917E+01  0.138273802271E+01  0.139201597954E+01  0.139921222334E+01  0.140418666205E+01
  0.140680709716E+01  0.140695221602E+01  0.140451484679E+01  0.139940542444E+01  0.139155559015E+01
  0.138092181465E+01  0.136748889895E+01  0.135127316231E+01  0.133232507946E+01  0.131073107568E+01
  0.128661413398E+01  0.126013281385E+01  0.123147823198E+01  0.120086851745E+01  0.116854023534E+01
  0.113473628407E+01  0.109968982680E+01  0.106360392965E+01  0.102662676924E+01  0.988857043041E+00
  0.950609256552E+00  0.912334834573E+00  0.874487580854E+00  0.000000000000E+00  0.000000000000E+00
  0.000000000000E+00  0.000000000000E+00  0.000000000000E+00  0.000000000000E+00  0.000000000000E+00
  0.000000000000E+00  0.000000000000E+00  0.000000000000E+00  0.000000000000E+00  0.000000000000E+00
  0.000000000000E+00  0.000000000000E+00  0.000000000000E+00  0.000000000000E+00  0.000000000000E+00
  0.000000000000E+00  0.000000000000E+00  0.000000000000E+00  0.000000000000E+00  0.000000000000E+00
  0.000000000000E+00  0.000000000000E+00  0.000000000000E+00  0.000000000000E+00  0.000000000000E+00
  0.000000000000E+00  0.000000000000E+00  0.000000000000E+00  0.000000000000E+00  0.000000000000E+00
  0.000000000000E+00  0.000000000000E+00  0.000000000000E+00  0.000000000000E+00  0.000000000000E+00
  0.000000000000E+00  0.000000000000E+00  0.000000000000E+00  0.000000000000E+00  0.000000000000E+00
  0.000000000000E+00  0.000000000000E+00  0.000000000000E+00  0.000000000000E+00  0.000000000000E+00
  0.000000000000E+00
 ae wavefunction
  0.134609681039E-02  0.138946705512E-02  0.143423273517E-02  0.148043862337E-02  0.152813092126E-02
  0.157735730409E-02  0.162816696735E-02  0.168061067457E-02  0.173474080670E-02  0.179061141297E-02
  0.184827826325E-02  0.190779890208E-02  0.196923270428E-02  0.203264093229E-02  0.209808679518E-02
  0.216563550954E-02  0.223535436209E-02  0.230731277425E-02  0.238158236859E-02  0.245823703738E-02
  0.253735301295E-02  0.261900894046E-02  0.270328595250E-02  0.279026774616E-02  0.288004066222E-02
  0.297269376672E-02  0.306831893485E-02  0.316701093746E-02  0.326886752987E-02  0.337398954339E-02
  0.348248097942E-02  0.359444910631E-02  0.371000455891E-02  0.382926144103E-02  0.395233743077E-02
  0.407935388878E-02  0.421043596964E-02  0.434571273631E-02  0.448531727769E-02  0.462938682954E-02
  0.477806289862E-02  0.493149139024E-02  0.508982273930E-02  0.525321204473E-02  0.542181920766E-02
  0.559580907314E-02  0.577535157560E-02  0.596062188808E-02  0.615180057538E-02  0.634907375095E-02
  0.655263323794E-02  0.676267673409E-02  0.697940798082E-02  0.720303693637E-02  0.743377995313E-02
  0.767185995922E-02  0.791750664424E-02  0.817095664939E-02  0.843245376187E-02  0.870224911355E-02
  0.898060138414E-02  0.926777700859E-02  0.956405038888E-02  0.986970411010E-02  0.101850291613E-01
  0.105103251596E-01  0.108459005800E-01  0.111920729880E-01  0.115491692774E-01  0.119175259117E-01
  0.122974891693E-01  0.126894153929E-01  0.130936712425E-01  0.135106339520E-01  0.139406915890E-01
  0.143842433178E-01  0.148416996655E-01  0.153134827910E-01  0.158000267556E-01  0.163017777969E-01
  0.168191946033E-01  0.173527485904E-01  0.179029241786E-01  0.184702190707E-01  0.190551445294E-01
  0.196582256548E-01  0.202800016601E-01  0.209210261453E-01  0.215818673694E-01  0.222631085173E-01
  0.229653479644E-01  0.236891995348E-01  0.244352927532E-01  0.252042730906E-01  0.259968022004E-01
  0.268135581451E-01  0.276552356122E-01  0.285225461175E-01  0.294162181934E-01  0.303369975626E-01
  0.312856472932E-01  0.322629479345E-01  0.332696976309E-01  0.343067122122E-01  0.353748252568E-01
  0.364748881268E-01  0.376077699709E-01  0.387743576922E-01  0.399755558794E-01  0.412122866961E-01
  0.424854897254E-01  0.437961217663E-01  0.451451565780E-01  0.465335845668E-01  0.479624124121E-01
  0.494326626264E-01  0.509453730441E-01  0.525015962333E-01  0.541023988258E-01  0.557488607586E-01
  0.574420744201E-01  0.591831436954E-01  0.609731829025E-01  0.628133156119E-01  0.647046733426E-01
  0.666483941249E-01  0.686456209218E-01  0.706974999001E-01  0.728051785408E-01  0.749698035782E-01
  0.771925187588E-01  0.794744624070E-01  0.818167647861E-01  0.842205452439E-01  0.866869091281E-01
  0.892169444597E-01  0.918117183499E-01  0.944722731461E-01  0.971996222934E-01  0.999947458934E-01
  0.102858585948E+00  0.105792041270E+00  0.108795962039E+00  0.111871144001E+00  0.115018322267E+00
  0.118238164726E+00  0.121531265019E+00  0.124898135090E+00  0.128339197262E+00  0.131854775845E+00
  0.135445088244E+00  0.139110235550E+00  0.142850192596E+00  0.146664797459E+00  0.150553740394E+00
  0.154516552171E+00  0.158552591815E+00  0.162661033719E+00  0.166840854120E+00  0.171090816930E+00
  0.175409458906E+00  0.179795074144E+00  0.184245697904E+00  0.188759089750E+00  0.193332716009E+00
  0.197963731548E+00  0.202648960884E+00  0.207384878617E+00  0.212167589235E+00  0.216992806278E+00
  0.221855830907E+00  0.226751529914E+00  0.231674313202E+00  0.236618110798E+00  0.241576349443E+00
  0.246541928846E+00  0.251507197664E+00  0.256463929310E+00  0.261403297678E+00  0.266315852924E+00
  0.271191497410E+00  0.276019461966E+00  0.280788282639E+00  0.285485778092E+00  0.290099027870E+00
  0.294614351733E+00  0.299017290297E+00  0.303292587254E+00  0.307424173431E+00  0.311395153010E+00
  0.315187792219E+00  0.318783510864E+00  0.322162877064E+00  0.325305605593E+00  0.328190560264E+00
  0.330795760801E+00  0.333098394673E+00  0.335074834403E+00  0.336700660871E+00  0.337950693153E+00
  0.338799025475E+00  0.339219071873E+00  0.339183619134E+00  0.338664888669E+00  0.337634607914E+00
  0.336064091897E+00  0.333924335587E+00  0.331186117653E+00  0.327820116211E+00  0.323797037161E+00
  0.319087755630E+00  0.313663471033E+00  0.307495876191E+00  0.300557340885E+00  0.292821110127E+00
  0.284261517367E+00  0.274854212708E+00  0.264576406107E+00  0.253407125369E+00  0.241327488618E+00
  0.228320990722E+00  0.214373802969E+00  0.199475085103E+00  0.183617308556E+00  0.166796589518E+00
  0.149013030174E+00  0.130271066169E+00  0.110579818012E+00  0.899534437881E-01  0.684114901202E-01
  0.459792379007E-01  0.226880388418E-01 -0.142436152402E-02 -0.263135190898E-01 -0.519280094531E-01
 -0.782091737312E-01 -0.105090895634E+00 -0.132499412250E+00 -0.160353159473E+00 -0.188562651812E+00
 -0.217030396191E+00 -0.245650841083E+00 -0.274310366045E+00 -0.302887322026E+00 -0.331252138214E+00
 -0.359267515024E+00 -0.386788722785E+00 -0.413664020895E+00 -0.439735203321E+00 -0.464838266628E+00
 -0.488804190683E+00 -0.511459821223E+00 -0.532628847144E+00 -0.552132869049E+00 -0.569792557577E+00
 -0.585428900171E+00 -0.598864531871E+00 -0.609925143525E+00 -0.618440958084E+00 -0.624248264013E+00
 -0.627190993428E+00 -0.627122332464E+00 -0.623906350250E+00 -0.617419633429E+00 -0.607552911640E+00
 -0.594212659916E+00 -0.577322662645E+00 -0.556825523198E+00 -0.532684102245E+00 -0.504882866907E+00
 -0.473429131242E+00 -0.438354167456E+00 -0.399714165421E+00 -0.357591016806E+00 -0.312092899038E+00
 -0.263354633399E+00 -0.211537792796E+00 -0.156830536079E+00 -0.994471507183E-01 -0.396272917936E-01
  0.223650859091E-01  0.862430965509E-01  0.151698579137E+00  0.218404026367E+00  0.286014784253E+00
  0.354171552371E+00  0.422503272265E+00  0.490630572471E+00  0.558170012111E+00  0.624739331132E+00
  0.689963543828E+00  0.753480725546E+00  0.814944895738E+00  0.874022953073E+00  0.930385566224E+00
  0.983698082580E+00  0.103362073901E+01  0.107982116344E+01  0.112199159188E+01  0.115986138987E+01
  0.119320251119E+01  0.122183085176E+01  0.124560654122E+01  0.126443447849E+01  0.127826525439E+01
  0.128709616733E+01  0.129097196008E+01  0.128998496654E+01  0.128427448082E+01  0.127402527758E+01
  0.125946532346E+01  0.124086277747E+01  0.121852242171E+01  0.119278167325E+01  0.116400633138E+01
  0.113258620936E+01  0.109893079322E+01  0.106346506010E+01  0.102662558329E+01  0.988857043041E+00
  0.950609256552E+00  0.912334834573E+00  0.874487580854E+00  0.000000000000E+00  0.000000000000E+00
  0.000000000000E+00  0.000000000000E+00  0.000000000000E+00  0.000000000000E+00  0.000000000000E+00
  0.000000000000E+00  0.000000000000E+00  0.000000000000E+00  0.000000000000E+00  0.000000000000E+00
  0.000000000000E+00  0.000000000000E+00  0.000000000000E+00  0.000000000000E+00  0.000000000000E+00
  0.000000000000E+00  0.000000000000E+00  0.000000000000E+00  0.000000000000E+00  0.000000000000E+00
  0.000000000000E+00  0.000000000000E+00  0.000000000000E+00  0.000000000000E+00  0.000000000000E+00
  0.000000000000E+00  0.000000000000E+00  0.000000000000E+00  0.000000000000E+00  0.000000000000E+00
  0.000000000000E+00  0.000000000000E+00  0.000000000000E+00  0.000000000000E+00  0.000000000000E+00
  0.000000000000E+00  0.000000000000E+00  0.000000000000E+00  0.000000000000E+00  0.000000000000E+00
  0.000000000000E+00  0.000000000000E+00  0.000000000000E+00  0.000000000000E+00  0.000000000000E+00
  0.000000000000E+00
 pseudo wavefunction
  0.878587297536E-08  0.936655239357E-08  0.998561030718E-08  0.106455832430E-07  0.113491753729E-07
  0.120992695940E-07  0.128989393410E-07  0.137514611794E-07  0.146603282305E-07  0.156292644844E-07
  0.166622400590E-07  0.177634874662E-07  0.189375189553E-07  0.201891450006E-07  0.215234940124E-07
  0.229460333498E-07  0.244625917227E-07  0.260793830745E-07  0.278030320431E-07  0.296406011042E-07
  0.315996195098E-07  0.336881141381E-07  0.359146423827E-07  0.382883272160E-07  0.408188945694E-07
  0.435167131844E-07  0.463928370974E-07  0.494590509325E-07  0.527279181876E-07  0.562128327124E-07
  0.599280735881E-07  0.638888636345E-07  0.681114317836E-07  0.726130795767E-07  0.774122520548E-07
  0.825286133361E-07  0.879831271867E-07  0.937981429185E-07  0.999974869622E-07  0.106606560494E-06
  0.113652443515E-06  0.121164005808E-06  0.129172025226E-06  0.137709313807E-06  0.146810852212E-06
  0.156513933057E-06  0.166858313716E-06  0.177886379224E-06  0.189643315938E-06  0.202177296694E-06
  0.215539678180E-06  0.229785211371E-06  0.244972265864E-06  0.261163069036E-06  0.278423961023E-06
  0.296825666531E-06  0.316443584632E-06  0.337358097696E-06  0.359654900754E-06  0.383425352620E-06
  0.408766850225E-06  0.435783227691E-06  0.464585181776E-06  0.495290725444E-06  0.528025671408E-06
  0.562924147631E-06  0.600129146904E-06  0.639793112738E-06  0.682078563982E-06  0.727158760726E-06
  0.775218414214E-06  0.826454443669E-06  0.881076783151E-06  0.939309241731E-06  0.100139042052E-05
  0.106757469031E-05  0.113813323380E-05  0.121335515678E-05  0.129354867263E-05  0.137904236527E-05
  0.147018653538E-05  0.156735463581E-05  0.167094480166E-05  0.178138148162E-05  0.189911717709E-05
  0.202463429621E-05  0.215844713043E-05  0.230110396179E-05  0.245318930934E-05  0.261532632415E-05
  0.278817934255E-05  0.297245660809E-05  0.316891317346E-05  0.337835399417E-05  0.360163722665E-05
  0.383967774440E-05  0.409345088645E-05  0.436399645360E-05  0.465242296875E-05  0.495991221879E-05
  0.528772409667E-05  0.563720176347E-05  0.600977715162E-05  0.640697683183E-05  0.683042826774E-05
  0.728186648392E-05  0.776314117457E-05  0.827622428201E-05  0.882321807594E-05  0.940636376674E-05
  0.100280506879E-04  0.106908260853E-04  0.113974055533E-04  0.121506841611E-04  0.129537483132E-04
  0.138098883948E-04  0.147226122521E-04  0.156956595640E-04  0.167330171629E-04  0.178389353684E-04
  0.190179454000E-04  0.202748779406E-04  0.216148829265E-04  0.230434506455E-04  0.245664342283E-04
  0.261900736270E-04  0.279210211770E-04  0.297663688485E-04  0.317336772986E-04  0.338310068423E-04
  0.360669504703E-04  0.384506690481E-04  0.409919288401E-04  0.437011415135E-04  0.465894067841E-04
  0.496685578802E-04  0.529512100087E-04  0.564508120239E-04  0.601817015079E-04  0.641591634904E-04
  0.683994930459E-04  0.729200620253E-04  0.777393901953E-04  0.828772210748E-04  0.883546027800E-04
  0.941939742071E-04  0.100419256906E-03  0.107055953021E-03  0.114131249691E-03  0.121674130356E-03
  0.129715493390E-03  0.138288278586E-03  0.147427601969E-03  0.157170899524E-03  0.167558080388E-03
  0.178631690170E-03  0.190437085025E-03  0.203022617226E-03  0.216439832970E-03  0.230743683219E-03
  0.245992748459E-03  0.262249478262E-03  0.279580446644E-03  0.298056624252E-03  0.317753668480E-03
  0.338752232700E-03  0.361138295860E-03  0.385003513776E-03  0.410445593557E-03  0.437568692668E-03
  0.466483844245E-03  0.497309410389E-03  0.530171565256E-03  0.565204809907E-03  0.602552520975E-03
  0.642367535383E-03  0.684812773426E-03  0.730061902757E-03  0.778300045918E-03  0.829724534245E-03
  0.884545711180E-03  0.942987788172E-03  0.100528975660E-02  0.107170635933E-02  0.114250912573E-02
  0.121798747437E-02  0.129844988750E-02  0.138422516230E-02  0.147566374346E-02  0.157313914253E-02
  0.167704944956E-02  0.178781894279E-02  0.190589980284E-02  0.203177393782E-02  0.216595492653E-02
  0.230899008711E-02  0.246146267914E-02  0.262399424739E-02  0.279724711626E-02  0.298192704411E-02
  0.317878604748E-02  0.338862540566E-02  0.361229885667E-02  0.385071599624E-02  0.410484589222E-02
  0.437572092742E-02  0.466444088430E-02  0.497217728622E-02  0.530017801013E-02  0.564977218655E-02
  0.602237540364E-02  0.641949523252E-02  0.684273709222E-02  0.729381047312E-02  0.777453553864E-02
  0.828685012578E-02  0.883281716572E-02  0.941463254662E-02  0.100346334411E-01  0.106953071221E-01
  0.113993002903E-01  0.121494289387E-01  0.129486887773E-01  0.138002662447E-01  0.147075501294E-01
  0.156741438278E-01  0.167038782613E-01  0.178008254767E-01  0.189693129529E-01  0.202139386339E-01
  0.215395867074E-01  0.229514441459E-01  0.244550180222E-01  0.260561536107E-01  0.277610532755E-01
  0.295762961480E-01  0.315088585819E-01  0.335661353711E-01  0.357559617029E-01  0.380866358087E-01
  0.405669422616E-01  0.432061758518E-01  0.460141659566E-01  0.490013012980E-01  0.521785549577E-01
  0.555575094919E-01  0.591503819572E-01  0.629700486219E-01  0.670300690974E-01  0.713447095776E-01
  0.759289648230E-01  0.807985784655E-01  0.859700611475E-01  0.914607059312E-01  0.972886003351E-01
  0.103472634263E+00  0.110032502988E+00  0.116988704242E+00  0.124362528347E+00  0.132176040176E+00
  0.140452051602E+00  0.149214082927E+00  0.158486311615E+00  0.168293506478E+00  0.178660945281E+00
  0.189614313511E+00  0.201179581888E+00  0.213382859957E+00  0.226250222926E+00  0.239807508694E+00
  0.254080081860E+00  0.269092561319E+00  0.284868507966E+00  0.301430068936E+00  0.318797574807E+00
  0.336989086312E+00  0.356019887267E+00  0.375901920797E+00  0.396643166452E+00  0.418246956543E+00
  0.440711231013E+00  0.464027731485E+00  0.488181136765E+00  0.513148144177E+00  0.538896503656E+00
  0.565384014636E+00  0.592557499450E+00  0.620351771280E+00  0.648688619744E+00  0.677475842843E+00
  0.706606360427E+00  0.735957451233E+00  0.765390163040E+00  0.794748953131E+00  0.823861623907E+00
  0.852539625582E+00  0.880578803873E+00  0.907760674593E+00  0.933854308098E+00  0.958618903267E+00
  0.981807121555E+00  0.100316923484E+01  0.102245811414E+01  0.103943504748E+01  0.105387632193E+01
  0.106558043480E+01  0.107437571009E+01  0.108012798773E+01  0.108274792494E+01  0.108219730315E+01
  0.107849357643E+01  0.107171173609E+01  0.106198241726E+01  0.104948505593E+01  0.103443484928E+01
  0.101706231426E+01  0.997584425971E+00  0.976166700300E+00  0.952876224504E+00  0.927656253179E+00
  0.900600705216E+00  0.871910753830E+00  0.841796521791E+00  0.810470035820E+00  0.778143481372E+00
  0.745027526881E+00  0.711329698206E+00  0.677252787939E+00  0.642993280745E+00  0.608739794745E+00
  0.574671549653E+00  0.540956898197E+00  0.507751969037E+00  0.475199490662E+00  0.443427864063E+00
  0.412550545739E+00  0.382665782606E+00  0.353856712731E+00  0.326191814688E+00  0.299725658771E+00
  0.274499889271E+00  0.250544351186E+00  0.227878268727E+00  0.206511387162E+00  0.186445003692E+00
  0.167672835746E+00  0.150181703690E+00  0.133952035349E+00  0.118958227044E+00  0.105168915362E+00
  0.925472224365E-01  0.810510345523E-01  0.706333613218E-01  0.612428042591E-01  0.528241435041E-01
  0.453190333741E-01  0.386667836631E-01  0.328051950984E-01  0.276714139097E-01  0.232027711704E-01
  0.193375762511E-01  0.160158392288E-01  0.131799034259E-01  0.107749756772E-01  0.874954793777E-02
  0.705570913592E-02  0.564935060515E-02  0.449027193363E-02  0.354219668325E-02  0.277270921105E-02
  0.215312486472E-02
 ae wavefunction
 -0.615295782410E-06 -0.652583478930E-06 -0.691944293124E-06 -0.733504622933E-06 -0.777398124812E-06
 -0.823766167626E-06 -0.872758313512E-06 -0.924532829676E-06 -0.979257228712E-06 -0.103710884510E-05
 -0.109827544334E-05 -0.116295586851E-05 -0.123136073188E-05 -0.130371314317E-05 -0.138024948556E-05
 -0.146122024102E-05 -0.154689086544E-05 -0.163754272005E-05 -0.173347406033E-05 -0.183500108624E-05
 -0.194245906064E-05 -0.205620349586E-05 -0.217661141641E-05 -0.230408270136E-05 -0.243904151037E-05
 -0.258193780136E-05 -0.273324894569E-05 -0.289348143945E-05 -0.306317273261E-05 -0.324289316779E-05
 -0.343324804466E-05 -0.363487981600E-05 -0.384847042372E-05 -0.407474378370E-05 -0.431446842985E-05
 -0.456846032699E-05 -0.483758586406E-05 -0.512276503881E-05 -0.542497484694E-05 -0.574525288832E-05
 -0.608470120511E-05 -0.644449036617E-05 -0.682586381370E-05 -0.723014249009E-05 -0.765872976154E-05
 -0.811311665923E-05 -0.859488745725E-05 -0.910572561013E-05 -0.964742007246E-05 -0.102218720269E-04
 -0.108311020426E-04 -0.114772576987E-04 -0.121626216973E-04 -0.128896204981E-04 -0.136608335138E-04
 -0.144790028910E-04 -0.153470439307E-04 -0.162680561724E-04 -0.172453351959E-04 -0.182823851849E-04
 -0.193829322964E-04 -0.205509388917E-04 -0.217906186918E-04 -0.231064528969E-04 -0.245032073338E-04
 -0.259859507550E-04 -0.275600742445E-04 -0.292313119220E-04 -0.310057629691E-04 -0.328899150417E-04
 -0.348906692307E-04 -0.370153665720E-04 -0.392718163124E-04 -0.416683259300E-04 -0.442137331246E-04
 -0.469174398286E-04 -0.497894483895E-04 -0.528404000973E-04 -0.560816161205E-04 -0.595251411056E-04
 -0.631837895156E-04 -0.670711949487E-04 -0.712018625686E-04 -0.755912248956E-04 -0.802557011177E-04
 -0.852127601727E-04 -0.904809878273E-04 -0.960801580066E-04 -0.102031308621E-03 -0.108356822192E-03
 -0.115080511555E-03 -0.122227710964E-03 -0.129825372924E-03 -0.137902171096E-03 -0.146488609669E-03
 -0.155617139570E-03 -0.165322281934E-03 -0.175640759278E-03 -0.186611634879E-03 -0.198276460721E-03
 -0.210679434780E-03 -0.223867567877E-03 -0.237890860976E-03 -0.252802493330E-03 -0.268659022273E-03
 -0.285520595229E-03 -0.303451174705E-03 -0.322518777077E-03 -0.342795725872E-03 -0.364358920480E-03
 -0.387290121117E-03 -0.411676251045E-03 -0.437609716963E-03 -0.465188748652E-03 -0.494517758945E-03
 -0.525707725176E-03 -0.558876593275E-03 -0.594149705814E-03 -0.631660255286E-03 -0.671549764005E-03
 -0.713968592079E-03 -0.759076474972E-03 -0.807043092202E-03 -0.858048668862E-03 -0.912284611653E-03
 -0.969954181226E-03 -0.103127320270E-02 -0.109647081630E-02 -0.116579027004E-02 -0.123948975673E-02
 -0.131784329719E-02 -0.140114167214E-02 -0.148969340491E-02 -0.158382579741E-02 -0.168388602179E-02
 -0.179024227017E-02 -0.190328496525E-02 -0.202342803404E-02 -0.215111024775E-02 -0.228679663016E-02
 -0.243097993751E-02 -0.258418221242E-02 -0.274695641466E-02 -0.291988813153E-02 -0.310359737054E-02
 -0.329874043700E-02 -0.350601189926E-02 -0.372614664398E-02 -0.395992202389E-02 -0.420816010037E-02
 -0.447172998281E-02 -0.475155026680E-02 -0.504859157258E-02 -0.536387918528E-02 -0.569849579782E-02
 -0.605358435712E-02 -0.643035101375E-02 -0.683006817454E-02 -0.725407765736E-02 -0.770379394624E-02
 -0.818070754451E-02 -0.868638842265E-02 -0.922248955671E-02 -0.979075055195E-02 -0.103930013454E-01
 -0.110311659793E-01 -0.117072664370E-01 -0.124234265294E-01 -0.131818758205E-01 -0.139849535775E-01
 -0.148351127287E-01 -0.157349238103E-01 -0.166870788825E-01 -0.176943953888E-01 -0.187598199340E-01
 -0.198864319504E-01 -0.210774472181E-01 -0.223362212051E-01 -0.236662521850E-01 -0.250711840882E-01
 -0.265548090385E-01 -0.281210695210E-01 -0.297740601229E-01 -0.315180287851E-01 -0.333573774945E-01
 -0.352966623428E-01 -0.373405928723E-01 -0.394940306219E-01 -0.417619867801E-01 -0.441496188465E-01
 -0.466622261959E-01 -0.493052444320E-01 -0.520842384113E-01 -0.550048938118E-01 -0.580730071125E-01
 -0.612944738448E-01 -0.646752749693E-01 -0.682214612272E-01 -0.719391353079E-01 -0.758344316690E-01
 -0.799134938458E-01 -0.841824490758E-01 -0.886473800690E-01 -0.933142937492E-01 -0.981890867937E-01
 -0.103277507801E+00 -0.108585115922E+00 -0.114117235786E+00 -0.119878908589E+00 -0.125874839180E+00
 -0.132109339045E+00 -0.138586265063E+00 -0.145308953957E+00 -0.152280152386E+00 -0.159501942634E+00
 -0.166975663911E+00 -0.174701829305E+00 -0.182680038463E+00 -0.190908886151E+00 -0.199385866871E+00
 -0.208107275783E+00 -0.217068106272E+00 -0.226261944531E+00 -0.235680861682E+00 -0.245315304000E+00
 -0.255153981971E+00 -0.265183759030E+00 -0.275389540970E+00 -0.285754167203E+00 -0.296258305192E+00
 -0.306880349533E+00 -0.317596327217E+00 -0.328379810575E+00 -0.339201839105E+00 -0.350030850845E+00
 -0.360832623092E+00 -0.371570221099E+00 -0.382203952306E+00 -0.392691323007E+00 -0.402986994833E+00
 -0.413042740466E+00 -0.422807401687E+00 -0.432226857522E+00 -0.441244014923E+00 -0.449798837217E+00
 -0.457828425701E+00 -0.465267165667E+00 -0.472046940584E+00 -0.478097409044E+00 -0.483346332110E+00
 -0.487719937254E+00 -0.491143308582E+00 -0.493540799560E+00 -0.494836469048E+00 -0.494954543444E+00
 -0.493819907692E+00 -0.491358625207E+00 -0.487498485395E+00 -0.482169575794E+00 -0.475304875286E+00
 -0.466840864483E+00 -0.456718149896E+00 -0.444882098134E+00 -0.431283477203E+00 -0.415879101120E+00
 -0.398632474624E+00 -0.379514433973E+00 -0.358503779468E+00 -0.335587894624E+00 -0.310763346226E+00
 -0.284036458277E+00 -0.255423851975E+00 -0.224952942386E+00 -0.192662381419E+00 -0.158602435599E+00
 -0.122835286269E+00 -0.854352400773E-01 -0.464888381069E-01 -0.609485446168E-02  0.356358216107E-01
  0.785804213528E-01  0.122604646594E+00  0.167563128348E+00  0.213299990430E+00  0.259649526541E+00
  0.306437025662E+00  0.353479825187E+00  0.400588731965E+00  0.447570004736E+00  0.494228061893E+00
  0.540368792953E+00  0.585802605574E+00  0.630345257279E+00  0.673814206874E+00  0.716020467492E+00
  0.756760588619E+00  0.795815801065E+00  0.832960582793E+00  0.867974915097E+00  0.900653116439E+00
  0.930807480326E+00  0.958268982923E+00  0.982887390244E+00  0.100453177597E+01  0.102309157098E+01
  0.103847792626E+01  0.105062510014E+01  0.105949161518E+01  0.106506101332E+01  0.106734211944E+01
  0.106636880299E+01  0.106219926929E+01  0.105491494422E+01  0.104461902278E+01  0.103143475447E+01
  0.101550353457E+01  0.996982865105E+00  0.976044240850E+00  0.952871010387E+00  0.927656253179E+00
  0.900600705216E+00  0.871910753830E+00  0.841796521791E+00  0.810470035820E+00  0.778143481372E+00
  0.745027526881E+00  0.711329698206E+00  0.677252787939E+00  0.642993280745E+00  0.608739794745E+00
  0.574671549653E+00  0.540956898197E+00  0.507751969037E+00  0.475199490662E+00  0.443427864063E+00
  0.412550545739E+00  0.382665782606E+00  0.353856712731E+00  0.326191814688E+00  0.299725658771E+00
  0.274499889271E+00  0.250544351186E+00  0.227878268727E+00  0.206511387162E+00  0.186445003692E+00
  0.167672835746E+00  0.150181703690E+00  0.133952035349E+00  0.118958227044E+00  0.105168915362E+00
  0.925472224365E-01  0.810510345523E-01  0.706333613218E-01  0.612428042591E-01  0.528241435041E-01
  0.453190333741E-01  0.386667836631E-01  0.328051950984E-01  0.276714139097E-01  0.232027711704E-01
  0.193375762511E-01  0.160158392288E-01  0.131799034259E-01  0.107749756772E-01  0.874954793777E-02
  0.705570913592E-02  0.564935060515E-02  0.449027193363E-02  0.354219668325E-02  0.277270921105E-02
  0.215312486472E-02
 pseudo wavefunction
  0.111876389569E-07  0.119270568495E-07  0.127153446440E-07  0.135557322693E-07  0.144516631282E-07
  0.154068082062E-07  0.164250811130E-07  0.175106541182E-07  0.186679752465E-07  0.199017865035E-07
  0.212171433052E-07  0.226194351920E-07  0.241144079121E-07  0.257081869639E-07  0.274073026948E-07
  0.292187170583E-07  0.311498521401E-07  0.332086205695E-07  0.354034579401E-07  0.377433573744E-07
  0.402379063718E-07  0.428973260923E-07  0.457325132369E-07  0.487550846958E-07  0.519774251470E-07
  0.554127378017E-07  0.590750985028E-07  0.629795133992E-07  0.671419804323E-07  0.715795548853E-07
  0.763104192662E-07  0.813539578081E-07  0.867308358944E-07  0.924630847329E-07  0.985741916267E-07
  0.105089196210E-06  0.112034793048E-06  0.119439441011E-06  0.127333479886E-06  0.135749254686E-06
  0.144721248185E-06  0.154286222205E-06  0.164483368244E-06  0.175354468060E-06  0.186944064865E-06
  0.199299645839E-06  0.212471836700E-06  0.226514609143E-06  0.241485501976E-06  0.257445856887E-06
  0.274461069778E-06  0.292600858721E-06  0.311939549619E-06  0.332556380752E-06  0.354535827440E-06
  0.377967948177E-06  0.402948753634E-06  0.429580600051E-06  0.457972608633E-06  0.488241112658E-06
  0.520510134140E-06  0.554911891999E-06  0.591587343807E-06  0.630686763349E-06  0.672370356351E-06
  0.716808916903E-06  0.764184527270E-06  0.814691303948E-06  0.868536193036E-06  0.925939818169E-06
  0.987137384499E-06  0.105237964241E-05  0.112193391496E-05  0.119608519316E-05  0.127513730373E-05
  0.135941415396E-05  0.144926105888E-05  0.154504615617E-05  0.164716191448E-05  0.175602674162E-05
  0.187208669882E-05  0.199581732846E-05  0.212772560253E-05  0.226835199983E-05  0.241827272053E-05
  0.257810204707E-05  0.274849486102E-05  0.293014932639E-05  0.312380975024E-05  0.333026963230E-05
  0.355037491624E-05  0.378502745570E-05  0.403518870951E-05  0.430188368105E-05  0.458620511796E-05
  0.488931798950E-05  0.521246425964E-05  0.555696797582E-05  0.592424069386E-05  0.631578726145E-05
  0.673321198386E-05  0.717822519718E-05  0.765265027588E-05  0.815843110358E-05  0.869764003749E-05
  0.927248639923E-05  0.988532552674E-05  0.105386684245E-04  0.112351920514E-04  0.119777502884E-04
  0.127693856315E-04  0.136133416567E-04  0.145130763091E-04  0.154722760705E-04  0.164948710625E-04
  0.175850511486E-04  0.187472830993E-04  0.199863288924E-04  0.213072652223E-04  0.227155042983E-04
  0.242168160174E-04  0.258173516025E-04  0.275236688020E-04  0.293427587552E-04  0.312820746321E-04
  0.333495621664E-04  0.355536922053E-04  0.379034954103E-04  0.404085992502E-04  0.430792674392E-04
  0.459264419800E-04  0.489617879841E-04  0.521977414541E-04  0.556475602223E-04  0.593253782540E-04
  0.632462635386E-04  0.674262798047E-04  0.718825523115E-04  0.766333379861E-04  0.816981001937E-04
  0.870975884454E-04  0.928539233709E-04  0.989906873026E-04  0.105533020842E-03  0.112507725801E-03
  0.119943374944E-03  0.127870428972E-03  0.136321361235E-03  0.145330790668E-03  0.154935623516E-03
  0.165175204401E-03  0.176091477368E-03  0.187729157557E-03  0.200135914200E-03  0.213362565695E-03
  0.227463287554E-03  0.242495834059E-03  0.258521774547E-03  0.275606745273E-03  0.293820717883E-03
  0.313238285584E-03  0.333938968181E-03  0.356007537219E-03  0.379534362547E-03  0.404615781714E-03
  0.431354493702E-03  0.459859978580E-03  0.490248944791E-03  0.522645805881E-03  0.557183188593E-03
  0.594002474389E-03  0.633254376579E-03  0.675099555400E-03  0.719709273505E-03  0.767266094519E-03
  0.817964627465E-03  0.872012320052E-03  0.929630304009E-03  0.991054295847E-03  0.105653555667E-02
  0.112634191482E-02  0.120075885555E-02  0.128009068189E-02  0.136466175144E-02  0.145481779404E-02
  0.155092731530E-02  0.165338309186E-02  0.176260376393E-02  0.187903553163E-02  0.200315396157E-02
  0.213546591090E-02  0.227651157611E-02  0.242686667472E-02  0.258714476811E-02  0.275799973455E-02
  0.294012840181E-02  0.313427334939E-02  0.334122589100E-02  0.356182924856E-02  0.379698192953E-02
  0.404764132023E-02  0.431482750833E-02  0.459962734869E-02  0.490319878713E-02  0.522677545801E-02
  0.557167157181E-02  0.593928711020E-02  0.633111334664E-02  0.674873871183E-02  0.719385502383E-02
  0.766826410400E-02  0.817388480079E-02  0.871276044412E-02  0.928706675450E-02  0.989912023173E-02
  0.105513870490E-01  0.112464924790E-01  0.119872308806E-01  0.127765762728E-01  0.136176935272E-01
  0.145139502077E-01  0.154689290878E-01  0.164864413766E-01  0.175705406846E-01  0.187255377593E-01
  0.199560160219E-01  0.212668479345E-01  0.226632122263E-01  0.241506120062E-01  0.257348937871E-01
  0.274222674426E-01  0.292193271177E-01  0.311330731044E-01  0.331709346944E-01  0.353407940091E-01
  0.376510108029E-01  0.401104482247E-01  0.427284995119E-01  0.455151155776E-01  0.484808334383E-01
  0.516368054091E-01  0.549948289732E-01  0.585673772117E-01  0.623676296461E-01  0.664095033212E-01
  0.707076839127E-01  0.752776566092E-01  0.801357364650E-01  0.852990978706E-01  0.907858027258E-01
  0.966148268310E-01  0.102806083937E+00  0.109380446805E+00  0.116359764538E+00  0.123766875318E+00
  0.131625613604E+00  0.139960810657E+00  0.148798287169E+00  0.158164836568E+00  0.168088197426E+00
  0.178597013193E+00  0.189720777277E+00  0.201489761270E+00  0.213934923893E+00  0.227087797972E+00
  0.240980352515E+00  0.255644826690E+00  0.271113532225E+00  0.287418620514E+00  0.304591810425E+00
  0.322664072597E+00  0.341665265804E+00  0.361623720798E+00  0.382565766969E+00  0.404515197152E+00
  0.427492666022E+00  0.451515017786E+00  0.476594539311E+00  0.502738135522E+00  0.529946424834E+00
  0.558212753671E+00  0.587522130800E+00  0.617850084360E+00  0.649161447126E+00  0.681409078840E+00
  0.714532538426E+00  0.748456723599E+00  0.783090500949E+00  0.818325355936E+00  0.854034099513E+00
  0.890069676123E+00  0.926264126665E+00  0.962427769352E+00  0.998348671020E+00  0.103379249093E+01
  0.106850278786E+01  0.110220188837E+01  0.113459241904E+01  0.116535960578E+01  0.119417443892E+01
  0.122069779026E+01  0.124458554639E+01  0.126549478810E+01  0.128309099661E+01  0.129705619995E+01
  0.130709788555E+01  0.131295839548E+01  0.131442438817E+01  0.131133579632E+01  0.130359353859E+01
  0.129116506069E+01  0.127408660314E+01  0.125246093713E+01  0.122644920595E+01  0.119625549301E+01
  0.116210285733E+01  0.112419988812E+01  0.108269739757E+01  0.103763575821E+01  0.988921119676E+00
  0.936605439382E+00  0.880864780210E+00  0.821873549404E+00  0.000000000000E+00  0.000000000000E+00
  0.000000000000E+00  0.000000000000E+00  0.000000000000E+00  0.000000000000E+00  0.000000000000E+00
  0.000000000000E+00  0.000000000000E+00  0.000000000000E+00  0.000000000000E+00  0.000000000000E+00
  0.000000000000E+00  0.000000000000E+00  0.000000000000E+00  0.000000000000E+00  0.000000000000E+00
  0.000000000000E+00  0.000000000000E+00  0.000000000000E+00  0.000000000000E+00  0.000000000000E+00
  0.000000000000E+00  0.000000000000E+00  0.000000000000E+00  0.000000000000E+00  0.000000000000E+00
  0.000000000000E+00  0.000000000000E+00  0.000000000000E+00  0.000000000000E+00  0.000000000000E+00
  0.000000000000E+00  0.000000000000E+00  0.000000000000E+00  0.000000000000E+00  0.000000000000E+00
  0.000000000000E+00  0.000000000000E+00  0.000000000000E+00  0.000000000000E+00  0.000000000000E+00
  0.000000000000E+00  0.000000000000E+00  0.000000000000E+00  0.000000000000E+00  0.000000000000E+00
  0.000000000000E+00
 ae wavefunction
 -0.775409149779E-06 -0.822399926436E-06 -0.872003291473E-06 -0.924378534375E-06 -0.979694091974E-06
 -0.103812812044E-05 -0.109986910131E-05 -0.116511648641E-05 -0.123408137884E-05 -0.130698725943E-05
 -0.138407075319E-05 -0.146558244909E-05 -0.155178776412E-05 -0.164296786612E-05 -0.173942065040E-05
 -0.184146177993E-05 -0.194942578810E-05 -0.206366725259E-05 -0.218456204161E-05 -0.231250863736E-05
 -0.244792954555E-05 -0.259127279073E-05 -0.274301350762E-05 -0.290365563268E-05 -0.307373370138E-05
 -0.325381476074E-05 -0.344450040475E-05 -0.364642893111E-05 -0.386027764624E-05 -0.408676530865E-05
 -0.432665473048E-05 -0.458075554508E-05 -0.484992715088E-05 -0.513508184283E-05 -0.543718814455E-05
 -0.575727435316E-05 -0.609643231134E-05 -0.645582142089E-05 -0.683667291361E-05 -0.724029439610E-05
 -0.766807468656E-05 -0.812148896209E-05 -0.860210423639E-05 -0.911158519068E-05 -0.965170037848E-05
 -0.102243288307E-04 -0.108314670852E-04 -0.114752366689E-04 -0.121578920627E-04 -0.128818291796E-04
 -0.136495943862E-04 -0.144638941099E-04 -0.153276050631E-04 -0.162437851248E-04 -0.172156849288E-04
 -0.182467601900E-04 -0.193406848361E-04 -0.205013649763E-04 -0.217329537743E-04 -0.230398672812E-04
 -0.244268012837E-04 -0.258987492385E-04 -0.274610213715E-04 -0.291192649918E-04 -0.308794861014E-04
 -0.327480724560E-04 -0.347318180207E-04 -0.368379490620E-04 -0.390741519053E-04 -0.414486024402E-04
 -0.439699975762E-04 -0.466475886516E-04 -0.494912170540E-04 -0.525113520538E-04 -0.557191311181E-04
 -0.591264027729E-04 -0.627457722001E-04 -0.665906497918E-04 -0.706753027373E-04 -0.750149099696E-04
 -0.796256205611E-04 -0.845246158765E-04 -0.897301756465E-04 -0.952617482770E-04 -0.101140025594E-03
 -0.107387022343E-03 -0.114026160718E-03 -0.121082360259E-03 -0.128582133408E-03 -0.136553687112E-03
 -0.145027030836E-03 -0.154034091364E-03 -0.163608834837E-03 -0.173787396435E-03 -0.184608218206E-03
 -0.196112195521E-03 -0.208342832668E-03 -0.221346408168E-03 -0.235172150413E-03 -0.249872424115E-03
 -0.265502928525E-03 -0.282122907694E-03 -0.299795373915E-03 -0.318587344829E-03 -0.338570095197E-03
 -0.359819424090E-03 -0.382415938419E-03 -0.406445353862E-03 -0.431998814053E-03 -0.459173229222E-03
 -0.488071635299E-03 -0.518803574787E-03 -0.551485500521E-03 -0.586241203687E-03 -0.623202267474E-03
 -0.662508547767E-03 -0.704308682404E-03 -0.748760630599E-03 -0.796032244169E-03 -0.846301872316E-03
 -0.899759001771E-03 -0.956604934242E-03 -0.101705350308E-02 -0.108133183135E-02 -0.114968113332E-02
 -0.122235756178E-02 -0.129963310345E-02 -0.138179652487E-02 -0.146915437146E-02 -0.156203202220E-02
 -0.166077480269E-02 -0.176574915957E-02 -0.187734389884E-02 -0.199597149145E-02 -0.212206944895E-02
 -0.225610177243E-02 -0.239856047802E-02 -0.254996720211E-02 -0.271087488982E-02 -0.288186956981E-02
 -0.306357221914E-02 -0.325664072157E-02 -0.346177192251E-02 -0.367970378445E-02 -0.391121764595E-02
 -0.415714058778E-02 -0.441834790930E-02 -0.469576571847E-02 -0.499037363831E-02 -0.530320763277E-02
 -0.563536295472E-02 -0.598799721819E-02 -0.636233359722E-02 -0.675966415272E-02 -0.718135328875E-02
 -0.762884133899E-02 -0.810364828336E-02 -0.860737759453E-02 -0.914172021298E-02 -0.970845864845E-02
 -0.103094712048E-01 -0.109467363244E-01 -0.116223370458E-01 -0.123384655699E-01 -0.130974279239E-01
 -0.139016487162E-01 -0.147536759678E-01 -0.156561860089E-01 -0.166119884239E-01 -0.176240310270E-01
 -0.186954048470E-01 -0.198293490991E-01 -0.210292561159E-01 -0.222986762080E-01 -0.236413224205E-01
 -0.250610751485E-01 -0.265619865689E-01 -0.281482848433E-01 -0.298243780405E-01 -0.315948577224E-01
 -0.334645021326E-01 -0.354382789186E-01 -0.375213473166E-01 -0.397190597159E-01 -0.420369625191E-01
 -0.444807962021E-01 -0.470564944732E-01 -0.497701824228E-01 -0.526281735460E-01 -0.556369655128E-01
 -0.588032345533E-01 -0.621338283139E-01 -0.656357570361E-01 -0.693161828958E-01 -0.731824073383E-01
 -0.772418562295E-01 -0.815020626413E-01 -0.859706470787E-01 -0.906552949492E-01 -0.955637310688E-01
 -0.100703690995E+00 -0.106082888973E+00 -0.111708982270E+00 -0.117589531692E+00 -0.123731958049E+00
 -0.130143494363E+00 -0.136831133610E+00 -0.143801571779E+00 -0.151061146076E+00 -0.158615768081E+00
 -0.166470851708E+00 -0.174631235828E+00 -0.183101101450E+00 -0.191883883379E+00 -0.200982176319E+00
 -0.210397635411E+00 -0.220130871278E+00 -0.230181339660E+00 -0.240547225827E+00 -0.251225323998E+00
 -0.262210912083E+00 -0.273497622153E+00 -0.285077307138E+00 -0.296939904380E+00 -0.309073296770E+00
 -0.321463172386E+00 -0.334092883695E+00 -0.346943307575E+00 -0.359992707639E+00 -0.373216600541E+00
 -0.386587628097E+00 -0.400075437201E+00 -0.413646569380E+00 -0.427264361552E+00 -0.440888858807E+00
 -0.454476738955E+00 -0.467981247170E+00 -0.481352137618E+00 -0.494535618218E+00 -0.507474295244E+00
 -0.520107117059E+00 -0.532369320923E+00 -0.544192392682E+00 -0.555504055045E+00 -0.566228303659E+00
 -0.576285510390E+00 -0.585592608033E+00 -0.594063361195E+00 -0.601608716575E+00 -0.608137217127E+00
 -0.613555462773E+00 -0.617768604750E+00 -0.620680868907E+00 -0.622196109036E+00 -0.622218393837E+00
 -0.620652631078E+00 -0.617405229073E+00 -0.612384793930E+00 -0.605502858885E+00 -0.596674641379E+00
 -0.585819823052E+00 -0.572863348499E+00 -0.557736238173E+00 -0.540376411839E+00 -0.520729517917E+00
 -0.498749764766E+00 -0.474400748930E+00 -0.447656274944E+00 -0.418501160353E+00 -0.386932018723E+00
 -0.352958011875E+00 -0.316601561409E+00 -0.277899007760E+00 -0.236901203625E+00 -0.193674027211E+00
 -0.148298799644E+00 -0.100872591155E+00 -0.515084012998E-01 -0.335201580525E-03  0.525021670409E-01
  0.106843243418E+00  0.162512338239E+00  0.219319061495E+00  0.277058981478E+00  0.335514426735E+00
  0.394455476158E+00  0.453641238956E+00  0.512821602991E+00  0.571739696407E+00  0.630135267524E+00
  0.687748822403E+00  0.744325411159E+00  0.799615588485E+00  0.853370697224E+00  0.905332496000E+00
  0.955223028914E+00  0.100274362314E+01  0.104758579533E+01  0.108944675963E+01  0.112804055735E+01
  0.116310261364E+01  0.119439061041E+01  0.122168461727E+01  0.124478774484E+01  0.126352746157E+01
  0.127775728987E+01  0.128735851119E+01  0.129224155651E+01  0.129234686539E+01  0.128764510028E+01
  0.127813670265E+01  0.126385082961E+01  0.124484374870E+01  0.122119677583E+01  0.119301384296E+01
  0.116041877546E+01  0.112355235075E+01  0.108256919696E+01  0.103763458079E+01  0.988921119676E+00
  0.936605439382E+00  0.880864780210E+00  0.821873549404E+00  0.000000000000E+00  0.000000000000E+00
  0.000000000000E+00  0.000000000000E+00  0.000000000000E+00  0.000000000000E+00  0.000000000000E+00
  0.000000000000E+00  0.000000000000E+00  0.000000000000E+00  0.000000000000E+00  0.000000000000E+00
  0.000000000000E+00  0.000000000000E+00  0.000000000000E+00  0.000000000000E+00  0.000000000000E+00
  0.000000000000E+00  0.000000000000E+00  0.000000000000E+00  0.000000000000E+00  0.000000000000E+00
  0.000000000000E+00  0.000000000000E+00  0.000000000000E+00  0.000000000000E+00  0.000000000000E+00
  0.000000000000E+00  0.000000000000E+00  0.000000000000E+00  0.000000000000E+00  0.000000000000E+00
  0.000000000000E+00  0.000000000000E+00  0.000000000000E+00  0.000000000000E+00  0.000000000000E+00
  0.000000000000E+00  0.000000000000E+00  0.000000000000E+00  0.000000000000E+00  0.000000000000E+00
  0.000000000000E+00  0.000000000000E+00  0.000000000000E+00  0.000000000000E+00  0.000000000000E+00
  0.000000000000E+00
 End of Dataset
