# Compound: H3N. Old comment: H3N
  1.0000000000
  6.0000000000   0.0000000000   0.0000000000
  0.0000000000   7.0000000000   0.0000000000
  0.0000000000   0.0000000000   8.0000000000
H     N
    3     1
Direct
  0.6364280000   0.5674570000   0.4754177500
  0.5000000000   0.3649850000   0.4754335000
  0.3635720000   0.5674570000   0.4754177500
  0.5000000000   0.5000000000   0.5000000000
