EDIFF = 0.0001
ENCUT = 200
IALGO = 38
ISMEAR = -5
PREC = normal
SIGMA = 0.1
