# Compound: Si2. Old comment: Si2
  1.0000000000
  2.7155000000   0.0000000000   2.7155000000
  2.7155000000   2.7155000000   0.0000000000
  0.0000000000   2.7155000000   2.7155000000
Si
    2
Direct
  0.8750000000   0.8750000000   0.8750000000
  0.1250000000   0.1250000000   0.1250000000
