EDIFF = 0.0001
ENCUT = 200
IALGO = 38
PREC = NORMAL
SIGMA = 0.1
