# 
0
Gamma
            2             2             2
  0.000000000   0.000000000   0.000000000
