Automatic mesh
0
Gamma
2 2 2
0.0 0.0 0.0
