K-points
2
Reciprocal    
0.0 0.0 0.0 1.0
0.0 0.0 0.5 1.0
