# Compound: Si2. Old comment: Si2
  1.0000000000
  2.7000000000   0.0000000000   2.7000000000
  2.7000000000   2.7000000000   0.0000000000
  0.0000000000   2.7000000000   2.7000000000
Si
    2
Direct
  0.0000000000   0.0000000000   0.0000000000
  0.2500000000   0.2500000000   0.2500000000
