# Compound: Si. Old comment: Si
  1.0000000000
  2.3683772100   2.3683772100   0.0000000000
  0.0000000000   2.3683772100   2.3683772100
  2.3683772100   0.0000000000   2.3683772100
Si
    1
Direct
  0.1000000000   0.0000000000   0.0000000000
