GGA = PE
GGA_COMPAT = .FALSE.
LORBIT = 11
MAGMOM = 30 * 2*0.
SIGMA = 0.5
