# Compound: Si. Old comment: Si
  1.0000000000
  2.3875290700   2.3875290700   0.0000000000
  0.0000000000   2.3875290700   2.3875290700
  2.3875290700   0.0000000000   2.3875290700
Si
    1
Direct
  0.1000000000   0.0000000000   0.0000000000
