EDIFF = 1e-05
ENCUT = 240
ISMEAR = 0
ISPIN = 2
LORBIT = 10
MAGMOM = 0.643
NELM = 15
NUPDOWN = 2
POTIM = 0.1
SIGMA = 0.1
