
1.0
    6.0583600000   0.0000000000   0.0000000000
    0.0000000000   6.0583600000   0.0000000000
    0.0000000000   0.0000000000   6.0583600000
In As
4 4i
Cartesian
     0.00000      0.00000      0.00000    
     0.00000      3.02918      3.02918   
     3.02918      0.00000      3.02918   
     3.02918      3.02918      0.00000   
     4.54377      4.54377      1.51459    
     4.54377      1.51459      4.54377   
     1.51459      4.54377      4.54377     
     1.51459      1.51459      1.51459      
