zincblende GaAs
5.65325
0.0 0.5 0.5
0.5 0.0 0.5
0.5 0.5 0.0
Ga As
1 1
direct
0.00 0.00 0.00
0.25 0.25 0.25
