# Compound: Si. Old comment: Si
  1.0000000000
  1.9461004000   1.9461004000   0.0000000100
 -0.0000003400   1.9461007500   1.9461008600
  1.9461007500  -0.0000003400   1.9461008600
Si
    1
Direct
  0.1000000000   0.0000000000   0.0000000000
