# No comment
0
Gamma
            1             1             1
  0.000000000   0.000000000   0.000000000
