EDIFF = 0.0001
ENCUT = 200.0
IALGO = 38
ISMEAR = 0
PREC = NORMAL
SIGMA = 0.1
