 P S Zn
   1.00000000000000
     7.7143995199999997    0.0000000000000000    0.0000000000000000
     0.0000000000000000    7.7143995199999997    0.0000000000000000
     0.0000000000000000    0.0000000000000000    9.0430834800000000
   P    S    Zn
     4    16     6
Direct
  0.7569552799999997  0.7430447200000003  0.7500000000000000
  0.7430447200000003  0.2430447200000003  0.2500000000000000
  0.2569552799999997  0.7569552799999997  0.2500000000000000
  0.2430447200000003  0.2569552799999997  0.7500000000000000
  0.4830035800000019  0.2480565899999974  0.6405901899999975
  0.2480565899999974  0.5169964199999981  0.3594098100000025
  0.7480565899999974  0.9830035800000019  0.8594098100000025
  0.2519434100000026  0.0169964199999981  0.8594098100000025
  0.0169964199999981  0.7480565899999974  0.1405901899999975
  0.9830035800000019  0.2519434100000026  0.1405901899999975
  0.9706576399999989  0.7667889299999970  0.6231477199999986
  0.7667889299999970  0.0293423600000011  0.3768522800000014
  0.2332110700000030  0.9706576399999989  0.3768522800000014
  0.0293423600000011  0.2332110700000030  0.6231477199999986
  0.7332110700000030  0.5293423600000011  0.8768522800000014
  0.2667889299999970  0.4706576399999989  0.8768522800000014
  0.4706576399999989  0.7332110700000030  0.1231477199999986
  0.5293423600000011  0.2667889299999970  0.1231477199999986
  0.5169964199999981  0.7519434100000026  0.6405901899999975
  0.7519434100000026  0.4830035800000019  0.3594098100000025
  0.0000000000000000  0.5000000000000000  0.9851093300000002
  0.5000000000000000  0.0000000000000000  0.0148906699999998
  0.0000000000000000  0.5000000000000000  0.5148906699999998
  0.5000000000000000  0.0000000000000000  0.4851093300000002
  0.5000000000000000  0.5000000000000000  0.5000000000000000
  0.0000000000000000  0.0000000000000000  0.0000000000000000

  0.00000000E+00  0.00000000E+00  0.00000000E+00
  0.00000000E+00  0.00000000E+00  0.00000000E+00
  0.00000000E+00  0.00000000E+00  0.00000000E+00
  0.00000000E+00  0.00000000E+00  0.00000000E+00
  0.00000000E+00  0.00000000E+00  0.00000000E+00
  0.00000000E+00  0.00000000E+00  0.00000000E+00
  0.00000000E+00  0.00000000E+00  0.00000000E+00
  0.00000000E+00  0.00000000E+00  0.00000000E+00
  0.00000000E+00  0.00000000E+00  0.00000000E+00
  0.00000000E+00  0.00000000E+00  0.00000000E+00
  0.00000000E+00  0.00000000E+00  0.00000000E+00
  0.00000000E+00  0.00000000E+00  0.00000000E+00
  0.00000000E+00  0.00000000E+00  0.00000000E+00
  0.00000000E+00  0.00000000E+00  0.00000000E+00
  0.00000000E+00  0.00000000E+00  0.00000000E+00
  0.00000000E+00  0.00000000E+00  0.00000000E+00
  0.00000000E+00  0.00000000E+00  0.00000000E+00
  0.00000000E+00  0.00000000E+00  0.00000000E+00
  0.00000000E+00  0.00000000E+00  0.00000000E+00
  0.00000000E+00  0.00000000E+00  0.00000000E+00
  0.00000000E+00  0.00000000E+00  0.00000000E+00
  0.00000000E+00  0.00000000E+00  0.00000000E+00
  0.00000000E+00  0.00000000E+00  0.00000000E+00
  0.00000000E+00  0.00000000E+00  0.00000000E+00
  0.00000000E+00  0.00000000E+00  0.00000000E+00
  0.00000000E+00  0.00000000E+00  0.00000000E+00
