      PREC = Accurate
       GGA = PS
    IBRION = -1
    NELMIN = 5
     ENCUT = 359.739900
     EDIFF = 1.000000e-08
    ISMEAR = 0
     SIGMA = 1.000000e-02
     IALGO = 38
     LREAL = .FALSE.
   ADDGRID = .TRUE.
     LWAVE = .FALSE.
    LCHARG = .FALSE.
  LEPSILON = .TRUE.
