 P S Zn
   1.0
     7.7143995199999997    0.0000000000000000    0.0000000000000000
     0.0000000000000000    7.7143995199999997    0.0000000000000000
     0.0000000000000000    0.0000000000000000    9.0430834800000000
 P S Zn
   4  16   6
Direct
   0.7569552800000000  0.7430447200000000  0.7500000000000000
   0.7430447200000000  0.2430447200000000  0.2500000000000000
   0.2569552800000000  0.7569552800000000  0.2500000000000000
   0.2430447200000000  0.2569552800000000  0.7500000000000000
   0.4830035800000000  0.2480565900000000  0.6405901899999999
   0.2480565900000000  0.5169964200000000  0.3594098100000000
   0.7480565900000000  0.9830035800000000  0.8594098100000001
   0.2519434100000000  0.0169964200000000  0.8594098100000001
   0.0169964200000000  0.7480565900000000  0.1405901900000000
   0.9830035800000000  0.2519434100000000  0.1405901900000000
   0.9706576400000000  0.7667889300000000  0.6231477200000000
   0.7667889300000000  0.0293423600000000  0.3768522800000000
   0.2332110700000000  0.9706576400000000  0.3768522800000000
   0.0293423600000000  0.2332110700000000  0.6231477200000000
   0.7332110700000001  0.5293423600000000  0.8768522800000000
   0.2667889300000000  0.4706576400000000  0.8768522800000000
   0.4706576400000000  0.7332110700000001  0.1231477200000000
   0.5293423600000000  0.2667889300000000  0.1231477200000000
   0.5169964200000000  0.7519434100000000  0.6405901899999999
   0.7519434100000000  0.4830035800000000  0.3594098100000000
   0.0000000000000000  0.5000000000000000  0.9851093300000000
   0.5000000000000000  0.0000000000000000  0.0148906700000000
   0.0000000000000000  0.5000000000000000  0.5148906700000000
   0.5000000000000000  0.0000000000000000  0.4851093300000000
   0.5000000000000000  0.5000000000000000  0.5000000000000000
   0.0000000000000000  0.0000000000000000  0.0000000000000000
