
begin projections
    random
end projections
 num_wann =    32  ! set to NBANDS by VASP

spinors = .true.

begin unit_cell_cart
     0.0000000     2.8266250     2.8266250
     2.8266250     0.0000000     2.8266250
     2.8266250     2.8266250     0.0000000
end unit_cell_cart

begin atoms_cart
Ga       0.0000000     0.0000000     0.0000000
As       1.4133125     1.4133125     1.4133125
end atoms_cart

mp_grid =     8     8     8

begin kpoints
      0.000000000000      0.000000000000      0.000000000000
      0.125000000000      0.000000000000      0.000000000000
      0.250000000000      0.000000000000      0.000000000000
      0.375000000000      0.000000000000      0.000000000000
      0.500000000000      0.000000000000      0.000000000000
     -0.375000000000      0.000000000000      0.000000000000
     -0.250000000000      0.000000000000      0.000000000000
     -0.125000000000      0.000000000000      0.000000000000
      0.000000000000      0.125000000000      0.000000000000
      0.125000000000      0.125000000000      0.000000000000
      0.250000000000      0.125000000000      0.000000000000
      0.375000000000      0.125000000000      0.000000000000
      0.500000000000      0.125000000000      0.000000000000
     -0.375000000000      0.125000000000      0.000000000000
     -0.250000000000      0.125000000000      0.000000000000
     -0.125000000000      0.125000000000      0.000000000000
      0.000000000000      0.250000000000      0.000000000000
      0.125000000000      0.250000000000      0.000000000000
      0.250000000000      0.250000000000      0.000000000000
      0.375000000000      0.250000000000      0.000000000000
      0.500000000000      0.250000000000      0.000000000000
     -0.375000000000      0.250000000000      0.000000000000
     -0.250000000000      0.250000000000      0.000000000000
     -0.125000000000      0.250000000000      0.000000000000
      0.000000000000      0.375000000000      0.000000000000
      0.125000000000      0.375000000000      0.000000000000
      0.250000000000      0.375000000000      0.000000000000
      0.375000000000      0.375000000000      0.000000000000
      0.500000000000      0.375000000000      0.000000000000
     -0.375000000000      0.375000000000      0.000000000000
     -0.250000000000      0.375000000000      0.000000000000
     -0.125000000000      0.375000000000      0.000000000000
      0.000000000000      0.500000000000      0.000000000000
      0.125000000000      0.500000000000      0.000000000000
      0.250000000000      0.500000000000      0.000000000000
      0.375000000000      0.500000000000      0.000000000000
      0.500000000000      0.500000000000      0.000000000000
     -0.375000000000      0.500000000000      0.000000000000
     -0.250000000000      0.500000000000      0.000000000000
     -0.125000000000      0.500000000000      0.000000000000
      0.000000000000     -0.375000000000      0.000000000000
      0.125000000000     -0.375000000000      0.000000000000
      0.250000000000     -0.375000000000      0.000000000000
      0.375000000000     -0.375000000000      0.000000000000
      0.500000000000     -0.375000000000      0.000000000000
     -0.375000000000     -0.375000000000      0.000000000000
     -0.250000000000     -0.375000000000      0.000000000000
     -0.125000000000     -0.375000000000      0.000000000000
      0.000000000000     -0.250000000000      0.000000000000
      0.125000000000     -0.250000000000      0.000000000000
      0.250000000000     -0.250000000000      0.000000000000
      0.375000000000     -0.250000000000      0.000000000000
      0.500000000000     -0.250000000000      0.000000000000
     -0.375000000000     -0.250000000000      0.000000000000
     -0.250000000000     -0.250000000000      0.000000000000
     -0.125000000000     -0.250000000000      0.000000000000
      0.000000000000     -0.125000000000      0.000000000000
      0.125000000000     -0.125000000000      0.000000000000
      0.250000000000     -0.125000000000      0.000000000000
      0.375000000000     -0.125000000000      0.000000000000
      0.500000000000     -0.125000000000      0.000000000000
     -0.375000000000     -0.125000000000      0.000000000000
     -0.250000000000     -0.125000000000      0.000000000000
     -0.125000000000     -0.125000000000      0.000000000000
      0.000000000000      0.000000000000      0.125000000000
      0.125000000000      0.000000000000      0.125000000000
      0.250000000000      0.000000000000      0.125000000000
      0.375000000000      0.000000000000      0.125000000000
      0.500000000000      0.000000000000      0.125000000000
     -0.375000000000      0.000000000000      0.125000000000
     -0.250000000000      0.000000000000      0.125000000000
     -0.125000000000      0.000000000000      0.125000000000
      0.000000000000      0.125000000000      0.125000000000
      0.125000000000      0.125000000000      0.125000000000
      0.250000000000      0.125000000000      0.125000000000
      0.375000000000      0.125000000000      0.125000000000
      0.500000000000      0.125000000000      0.125000000000
     -0.375000000000      0.125000000000      0.125000000000
     -0.250000000000      0.125000000000      0.125000000000
     -0.125000000000      0.125000000000      0.125000000000
      0.000000000000      0.250000000000      0.125000000000
      0.125000000000      0.250000000000      0.125000000000
      0.250000000000      0.250000000000      0.125000000000
      0.375000000000      0.250000000000      0.125000000000
      0.500000000000      0.250000000000      0.125000000000
     -0.375000000000      0.250000000000      0.125000000000
     -0.250000000000      0.250000000000      0.125000000000
     -0.125000000000      0.250000000000      0.125000000000
      0.000000000000      0.375000000000      0.125000000000
      0.125000000000      0.375000000000      0.125000000000
      0.250000000000      0.375000000000      0.125000000000
      0.375000000000      0.375000000000      0.125000000000
      0.500000000000      0.375000000000      0.125000000000
     -0.375000000000      0.375000000000      0.125000000000
     -0.250000000000      0.375000000000      0.125000000000
     -0.125000000000      0.375000000000      0.125000000000
      0.000000000000      0.500000000000      0.125000000000
      0.125000000000      0.500000000000      0.125000000000
      0.250000000000      0.500000000000      0.125000000000
      0.375000000000      0.500000000000      0.125000000000
      0.500000000000      0.500000000000      0.125000000000
     -0.375000000000      0.500000000000      0.125000000000
     -0.250000000000      0.500000000000      0.125000000000
     -0.125000000000      0.500000000000      0.125000000000
      0.000000000000     -0.375000000000      0.125000000000
      0.125000000000     -0.375000000000      0.125000000000
      0.250000000000     -0.375000000000      0.125000000000
      0.375000000000     -0.375000000000      0.125000000000
      0.500000000000     -0.375000000000      0.125000000000
     -0.375000000000     -0.375000000000      0.125000000000
     -0.250000000000     -0.375000000000      0.125000000000
     -0.125000000000     -0.375000000000      0.125000000000
      0.000000000000     -0.250000000000      0.125000000000
      0.125000000000     -0.250000000000      0.125000000000
      0.250000000000     -0.250000000000      0.125000000000
      0.375000000000     -0.250000000000      0.125000000000
      0.500000000000     -0.250000000000      0.125000000000
     -0.375000000000     -0.250000000000      0.125000000000
     -0.250000000000     -0.250000000000      0.125000000000
     -0.125000000000     -0.250000000000      0.125000000000
      0.000000000000     -0.125000000000      0.125000000000
      0.125000000000     -0.125000000000      0.125000000000
      0.250000000000     -0.125000000000      0.125000000000
      0.375000000000     -0.125000000000      0.125000000000
      0.500000000000     -0.125000000000      0.125000000000
     -0.375000000000     -0.125000000000      0.125000000000
     -0.250000000000     -0.125000000000      0.125000000000
     -0.125000000000     -0.125000000000      0.125000000000
      0.000000000000      0.000000000000      0.250000000000
      0.125000000000      0.000000000000      0.250000000000
      0.250000000000      0.000000000000      0.250000000000
      0.375000000000      0.000000000000      0.250000000000
      0.500000000000      0.000000000000      0.250000000000
     -0.375000000000      0.000000000000      0.250000000000
     -0.250000000000      0.000000000000      0.250000000000
     -0.125000000000      0.000000000000      0.250000000000
      0.000000000000      0.125000000000      0.250000000000
      0.125000000000      0.125000000000      0.250000000000
      0.250000000000      0.125000000000      0.250000000000
      0.375000000000      0.125000000000      0.250000000000
      0.500000000000      0.125000000000      0.250000000000
     -0.375000000000      0.125000000000      0.250000000000
     -0.250000000000      0.125000000000      0.250000000000
     -0.125000000000      0.125000000000      0.250000000000
      0.000000000000      0.250000000000      0.250000000000
      0.125000000000      0.250000000000      0.250000000000
      0.250000000000      0.250000000000      0.250000000000
      0.375000000000      0.250000000000      0.250000000000
      0.500000000000      0.250000000000      0.250000000000
     -0.375000000000      0.250000000000      0.250000000000
     -0.250000000000      0.250000000000      0.250000000000
     -0.125000000000      0.250000000000      0.250000000000
      0.000000000000      0.375000000000      0.250000000000
      0.125000000000      0.375000000000      0.250000000000
      0.250000000000      0.375000000000      0.250000000000
      0.375000000000      0.375000000000      0.250000000000
      0.500000000000      0.375000000000      0.250000000000
     -0.375000000000      0.375000000000      0.250000000000
     -0.250000000000      0.375000000000      0.250000000000
     -0.125000000000      0.375000000000      0.250000000000
      0.000000000000      0.500000000000      0.250000000000
      0.125000000000      0.500000000000      0.250000000000
      0.250000000000      0.500000000000      0.250000000000
      0.375000000000      0.500000000000      0.250000000000
      0.500000000000      0.500000000000      0.250000000000
     -0.375000000000      0.500000000000      0.250000000000
     -0.250000000000      0.500000000000      0.250000000000
     -0.125000000000      0.500000000000      0.250000000000
      0.000000000000     -0.375000000000      0.250000000000
      0.125000000000     -0.375000000000      0.250000000000
      0.250000000000     -0.375000000000      0.250000000000
      0.375000000000     -0.375000000000      0.250000000000
      0.500000000000     -0.375000000000      0.250000000000
     -0.375000000000     -0.375000000000      0.250000000000
     -0.250000000000     -0.375000000000      0.250000000000
     -0.125000000000     -0.375000000000      0.250000000000
      0.000000000000     -0.250000000000      0.250000000000
      0.125000000000     -0.250000000000      0.250000000000
      0.250000000000     -0.250000000000      0.250000000000
      0.375000000000     -0.250000000000      0.250000000000
      0.500000000000     -0.250000000000      0.250000000000
     -0.375000000000     -0.250000000000      0.250000000000
     -0.250000000000     -0.250000000000      0.250000000000
     -0.125000000000     -0.250000000000      0.250000000000
      0.000000000000     -0.125000000000      0.250000000000
      0.125000000000     -0.125000000000      0.250000000000
      0.250000000000     -0.125000000000      0.250000000000
      0.375000000000     -0.125000000000      0.250000000000
      0.500000000000     -0.125000000000      0.250000000000
     -0.375000000000     -0.125000000000      0.250000000000
     -0.250000000000     -0.125000000000      0.250000000000
     -0.125000000000     -0.125000000000      0.250000000000
      0.000000000000      0.000000000000      0.375000000000
      0.125000000000      0.000000000000      0.375000000000
      0.250000000000      0.000000000000      0.375000000000
      0.375000000000      0.000000000000      0.375000000000
      0.500000000000      0.000000000000      0.375000000000
     -0.375000000000      0.000000000000      0.375000000000
     -0.250000000000      0.000000000000      0.375000000000
     -0.125000000000      0.000000000000      0.375000000000
      0.000000000000      0.125000000000      0.375000000000
      0.125000000000      0.125000000000      0.375000000000
      0.250000000000      0.125000000000      0.375000000000
      0.375000000000      0.125000000000      0.375000000000
      0.500000000000      0.125000000000      0.375000000000
     -0.375000000000      0.125000000000      0.375000000000
     -0.250000000000      0.125000000000      0.375000000000
     -0.125000000000      0.125000000000      0.375000000000
      0.000000000000      0.250000000000      0.375000000000
      0.125000000000      0.250000000000      0.375000000000
      0.250000000000      0.250000000000      0.375000000000
      0.375000000000      0.250000000000      0.375000000000
      0.500000000000      0.250000000000      0.375000000000
     -0.375000000000      0.250000000000      0.375000000000
     -0.250000000000      0.250000000000      0.375000000000
     -0.125000000000      0.250000000000      0.375000000000
      0.000000000000      0.375000000000      0.375000000000
      0.125000000000      0.375000000000      0.375000000000
      0.250000000000      0.375000000000      0.375000000000
      0.375000000000      0.375000000000      0.375000000000
      0.500000000000      0.375000000000      0.375000000000
     -0.375000000000      0.375000000000      0.375000000000
     -0.250000000000      0.375000000000      0.375000000000
     -0.125000000000      0.375000000000      0.375000000000
      0.000000000000      0.500000000000      0.375000000000
      0.125000000000      0.500000000000      0.375000000000
      0.250000000000      0.500000000000      0.375000000000
      0.375000000000      0.500000000000      0.375000000000
      0.500000000000      0.500000000000      0.375000000000
     -0.375000000000      0.500000000000      0.375000000000
     -0.250000000000      0.500000000000      0.375000000000
     -0.125000000000      0.500000000000      0.375000000000
      0.000000000000     -0.375000000000      0.375000000000
      0.125000000000     -0.375000000000      0.375000000000
      0.250000000000     -0.375000000000      0.375000000000
      0.375000000000     -0.375000000000      0.375000000000
      0.500000000000     -0.375000000000      0.375000000000
     -0.375000000000     -0.375000000000      0.375000000000
     -0.250000000000     -0.375000000000      0.375000000000
     -0.125000000000     -0.375000000000      0.375000000000
      0.000000000000     -0.250000000000      0.375000000000
      0.125000000000     -0.250000000000      0.375000000000
      0.250000000000     -0.250000000000      0.375000000000
      0.375000000000     -0.250000000000      0.375000000000
      0.500000000000     -0.250000000000      0.375000000000
     -0.375000000000     -0.250000000000      0.375000000000
     -0.250000000000     -0.250000000000      0.375000000000
     -0.125000000000     -0.250000000000      0.375000000000
      0.000000000000     -0.125000000000      0.375000000000
      0.125000000000     -0.125000000000      0.375000000000
      0.250000000000     -0.125000000000      0.375000000000
      0.375000000000     -0.125000000000      0.375000000000
      0.500000000000     -0.125000000000      0.375000000000
     -0.375000000000     -0.125000000000      0.375000000000
     -0.250000000000     -0.125000000000      0.375000000000
     -0.125000000000     -0.125000000000      0.375000000000
      0.000000000000      0.000000000000      0.500000000000
      0.125000000000      0.000000000000      0.500000000000
      0.250000000000      0.000000000000      0.500000000000
      0.375000000000      0.000000000000      0.500000000000
      0.500000000000      0.000000000000      0.500000000000
     -0.375000000000      0.000000000000      0.500000000000
     -0.250000000000      0.000000000000      0.500000000000
     -0.125000000000      0.000000000000      0.500000000000
      0.000000000000      0.125000000000      0.500000000000
      0.125000000000      0.125000000000      0.500000000000
      0.250000000000      0.125000000000      0.500000000000
      0.375000000000      0.125000000000      0.500000000000
      0.500000000000      0.125000000000      0.500000000000
     -0.375000000000      0.125000000000      0.500000000000
     -0.250000000000      0.125000000000      0.500000000000
     -0.125000000000      0.125000000000      0.500000000000
      0.000000000000      0.250000000000      0.500000000000
      0.125000000000      0.250000000000      0.500000000000
      0.250000000000      0.250000000000      0.500000000000
      0.375000000000      0.250000000000      0.500000000000
      0.500000000000      0.250000000000      0.500000000000
     -0.375000000000      0.250000000000      0.500000000000
     -0.250000000000      0.250000000000      0.500000000000
     -0.125000000000      0.250000000000      0.500000000000
      0.000000000000      0.375000000000      0.500000000000
      0.125000000000      0.375000000000      0.500000000000
      0.250000000000      0.375000000000      0.500000000000
      0.375000000000      0.375000000000      0.500000000000
      0.500000000000      0.375000000000      0.500000000000
     -0.375000000000      0.375000000000      0.500000000000
     -0.250000000000      0.375000000000      0.500000000000
     -0.125000000000      0.375000000000      0.500000000000
      0.000000000000      0.500000000000      0.500000000000
      0.125000000000      0.500000000000      0.500000000000
      0.250000000000      0.500000000000      0.500000000000
      0.375000000000      0.500000000000      0.500000000000
      0.500000000000      0.500000000000      0.500000000000
     -0.375000000000      0.500000000000      0.500000000000
     -0.250000000000      0.500000000000      0.500000000000
     -0.125000000000      0.500000000000      0.500000000000
      0.000000000000     -0.375000000000      0.500000000000
      0.125000000000     -0.375000000000      0.500000000000
      0.250000000000     -0.375000000000      0.500000000000
      0.375000000000     -0.375000000000      0.500000000000
      0.500000000000     -0.375000000000      0.500000000000
     -0.375000000000     -0.375000000000      0.500000000000
     -0.250000000000     -0.375000000000      0.500000000000
     -0.125000000000     -0.375000000000      0.500000000000
      0.000000000000     -0.250000000000      0.500000000000
      0.125000000000     -0.250000000000      0.500000000000
      0.250000000000     -0.250000000000      0.500000000000
      0.375000000000     -0.250000000000      0.500000000000
      0.500000000000     -0.250000000000      0.500000000000
     -0.375000000000     -0.250000000000      0.500000000000
     -0.250000000000     -0.250000000000      0.500000000000
     -0.125000000000     -0.250000000000      0.500000000000
      0.000000000000     -0.125000000000      0.500000000000
      0.125000000000     -0.125000000000      0.500000000000
      0.250000000000     -0.125000000000      0.500000000000
      0.375000000000     -0.125000000000      0.500000000000
      0.500000000000     -0.125000000000      0.500000000000
     -0.375000000000     -0.125000000000      0.500000000000
     -0.250000000000     -0.125000000000      0.500000000000
     -0.125000000000     -0.125000000000      0.500000000000
      0.000000000000      0.000000000000     -0.375000000000
      0.125000000000      0.000000000000     -0.375000000000
      0.250000000000      0.000000000000     -0.375000000000
      0.375000000000      0.000000000000     -0.375000000000
      0.500000000000      0.000000000000     -0.375000000000
     -0.375000000000      0.000000000000     -0.375000000000
     -0.250000000000      0.000000000000     -0.375000000000
     -0.125000000000      0.000000000000     -0.375000000000
      0.000000000000      0.125000000000     -0.375000000000
      0.125000000000      0.125000000000     -0.375000000000
      0.250000000000      0.125000000000     -0.375000000000
      0.375000000000      0.125000000000     -0.375000000000
      0.500000000000      0.125000000000     -0.375000000000
     -0.375000000000      0.125000000000     -0.375000000000
     -0.250000000000      0.125000000000     -0.375000000000
     -0.125000000000      0.125000000000     -0.375000000000
      0.000000000000      0.250000000000     -0.375000000000
      0.125000000000      0.250000000000     -0.375000000000
      0.250000000000      0.250000000000     -0.375000000000
      0.375000000000      0.250000000000     -0.375000000000
      0.500000000000      0.250000000000     -0.375000000000
     -0.375000000000      0.250000000000     -0.375000000000
     -0.250000000000      0.250000000000     -0.375000000000
     -0.125000000000      0.250000000000     -0.375000000000
      0.000000000000      0.375000000000     -0.375000000000
      0.125000000000      0.375000000000     -0.375000000000
      0.250000000000      0.375000000000     -0.375000000000
      0.375000000000      0.375000000000     -0.375000000000
      0.500000000000      0.375000000000     -0.375000000000
     -0.375000000000      0.375000000000     -0.375000000000
     -0.250000000000      0.375000000000     -0.375000000000
     -0.125000000000      0.375000000000     -0.375000000000
      0.000000000000      0.500000000000     -0.375000000000
      0.125000000000      0.500000000000     -0.375000000000
      0.250000000000      0.500000000000     -0.375000000000
      0.375000000000      0.500000000000     -0.375000000000
      0.500000000000      0.500000000000     -0.375000000000
     -0.375000000000      0.500000000000     -0.375000000000
     -0.250000000000      0.500000000000     -0.375000000000
     -0.125000000000      0.500000000000     -0.375000000000
      0.000000000000     -0.375000000000     -0.375000000000
      0.125000000000     -0.375000000000     -0.375000000000
      0.250000000000     -0.375000000000     -0.375000000000
      0.375000000000     -0.375000000000     -0.375000000000
      0.500000000000     -0.375000000000     -0.375000000000
     -0.375000000000     -0.375000000000     -0.375000000000
     -0.250000000000     -0.375000000000     -0.375000000000
     -0.125000000000     -0.375000000000     -0.375000000000
      0.000000000000     -0.250000000000     -0.375000000000
      0.125000000000     -0.250000000000     -0.375000000000
      0.250000000000     -0.250000000000     -0.375000000000
      0.375000000000     -0.250000000000     -0.375000000000
      0.500000000000     -0.250000000000     -0.375000000000
     -0.375000000000     -0.250000000000     -0.375000000000
     -0.250000000000     -0.250000000000     -0.375000000000
     -0.125000000000     -0.250000000000     -0.375000000000
      0.000000000000     -0.125000000000     -0.375000000000
      0.125000000000     -0.125000000000     -0.375000000000
      0.250000000000     -0.125000000000     -0.375000000000
      0.375000000000     -0.125000000000     -0.375000000000
      0.500000000000     -0.125000000000     -0.375000000000
     -0.375000000000     -0.125000000000     -0.375000000000
     -0.250000000000     -0.125000000000     -0.375000000000
     -0.125000000000     -0.125000000000     -0.375000000000
      0.000000000000      0.000000000000     -0.250000000000
      0.125000000000      0.000000000000     -0.250000000000
      0.250000000000      0.000000000000     -0.250000000000
      0.375000000000      0.000000000000     -0.250000000000
      0.500000000000      0.000000000000     -0.250000000000
     -0.375000000000      0.000000000000     -0.250000000000
     -0.250000000000      0.000000000000     -0.250000000000
     -0.125000000000      0.000000000000     -0.250000000000
      0.000000000000      0.125000000000     -0.250000000000
      0.125000000000      0.125000000000     -0.250000000000
      0.250000000000      0.125000000000     -0.250000000000
      0.375000000000      0.125000000000     -0.250000000000
      0.500000000000      0.125000000000     -0.250000000000
     -0.375000000000      0.125000000000     -0.250000000000
     -0.250000000000      0.125000000000     -0.250000000000
     -0.125000000000      0.125000000000     -0.250000000000
      0.000000000000      0.250000000000     -0.250000000000
      0.125000000000      0.250000000000     -0.250000000000
      0.250000000000      0.250000000000     -0.250000000000
      0.375000000000      0.250000000000     -0.250000000000
      0.500000000000      0.250000000000     -0.250000000000
     -0.375000000000      0.250000000000     -0.250000000000
     -0.250000000000      0.250000000000     -0.250000000000
     -0.125000000000      0.250000000000     -0.250000000000
      0.000000000000      0.375000000000     -0.250000000000
      0.125000000000      0.375000000000     -0.250000000000
      0.250000000000      0.375000000000     -0.250000000000
      0.375000000000      0.375000000000     -0.250000000000
      0.500000000000      0.375000000000     -0.250000000000
     -0.375000000000      0.375000000000     -0.250000000000
     -0.250000000000      0.375000000000     -0.250000000000
     -0.125000000000      0.375000000000     -0.250000000000
      0.000000000000      0.500000000000     -0.250000000000
      0.125000000000      0.500000000000     -0.250000000000
      0.250000000000      0.500000000000     -0.250000000000
      0.375000000000      0.500000000000     -0.250000000000
      0.500000000000      0.500000000000     -0.250000000000
     -0.375000000000      0.500000000000     -0.250000000000
     -0.250000000000      0.500000000000     -0.250000000000
     -0.125000000000      0.500000000000     -0.250000000000
      0.000000000000     -0.375000000000     -0.250000000000
      0.125000000000     -0.375000000000     -0.250000000000
      0.250000000000     -0.375000000000     -0.250000000000
      0.375000000000     -0.375000000000     -0.250000000000
      0.500000000000     -0.375000000000     -0.250000000000
     -0.375000000000     -0.375000000000     -0.250000000000
     -0.250000000000     -0.375000000000     -0.250000000000
     -0.125000000000     -0.375000000000     -0.250000000000
      0.000000000000     -0.250000000000     -0.250000000000
      0.125000000000     -0.250000000000     -0.250000000000
      0.250000000000     -0.250000000000     -0.250000000000
      0.375000000000     -0.250000000000     -0.250000000000
      0.500000000000     -0.250000000000     -0.250000000000
     -0.375000000000     -0.250000000000     -0.250000000000
     -0.250000000000     -0.250000000000     -0.250000000000
     -0.125000000000     -0.250000000000     -0.250000000000
      0.000000000000     -0.125000000000     -0.250000000000
      0.125000000000     -0.125000000000     -0.250000000000
      0.250000000000     -0.125000000000     -0.250000000000
      0.375000000000     -0.125000000000     -0.250000000000
      0.500000000000     -0.125000000000     -0.250000000000
     -0.375000000000     -0.125000000000     -0.250000000000
     -0.250000000000     -0.125000000000     -0.250000000000
     -0.125000000000     -0.125000000000     -0.250000000000
      0.000000000000      0.000000000000     -0.125000000000
      0.125000000000      0.000000000000     -0.125000000000
      0.250000000000      0.000000000000     -0.125000000000
      0.375000000000      0.000000000000     -0.125000000000
      0.500000000000      0.000000000000     -0.125000000000
     -0.375000000000      0.000000000000     -0.125000000000
     -0.250000000000      0.000000000000     -0.125000000000
     -0.125000000000      0.000000000000     -0.125000000000
      0.000000000000      0.125000000000     -0.125000000000
      0.125000000000      0.125000000000     -0.125000000000
      0.250000000000      0.125000000000     -0.125000000000
      0.375000000000      0.125000000000     -0.125000000000
      0.500000000000      0.125000000000     -0.125000000000
     -0.375000000000      0.125000000000     -0.125000000000
     -0.250000000000      0.125000000000     -0.125000000000
     -0.125000000000      0.125000000000     -0.125000000000
      0.000000000000      0.250000000000     -0.125000000000
      0.125000000000      0.250000000000     -0.125000000000
      0.250000000000      0.250000000000     -0.125000000000
      0.375000000000      0.250000000000     -0.125000000000
      0.500000000000      0.250000000000     -0.125000000000
     -0.375000000000      0.250000000000     -0.125000000000
     -0.250000000000      0.250000000000     -0.125000000000
     -0.125000000000      0.250000000000     -0.125000000000
      0.000000000000      0.375000000000     -0.125000000000
      0.125000000000      0.375000000000     -0.125000000000
      0.250000000000      0.375000000000     -0.125000000000
      0.375000000000      0.375000000000     -0.125000000000
      0.500000000000      0.375000000000     -0.125000000000
     -0.375000000000      0.375000000000     -0.125000000000
     -0.250000000000      0.375000000000     -0.125000000000
     -0.125000000000      0.375000000000     -0.125000000000
      0.000000000000      0.500000000000     -0.125000000000
      0.125000000000      0.500000000000     -0.125000000000
      0.250000000000      0.500000000000     -0.125000000000
      0.375000000000      0.500000000000     -0.125000000000