# No comment
0
Gamma
           16            16            16
  0.000000000   0.000000000   0.000000000
