EDIFF = 1e-09
ENCUT = 240
IBRION = 1
ISIF = 3
ISMEAR = 0
ISPIN = 2
LORBIT = 10
NELM = 15
NSW = 5
NUPDOWN = 2
POTIM = 0.1
SIGMA = 0.1
