 P S Zn
   1.00000000000000
    15.4287990399999995    0.0000000000000000    0.0000000000000000
     0.0000000000000000   15.4287990399999995    0.0000000000000000
     0.0000000000000000    0.0000000000000000    9.0430834800000000
   P    S    Zn
    16    64    24
Direct
  0.3791257785864204  0.3715223600000002  0.7500000000000000
  0.8784776399999998  0.3715223600000002  0.7500000000000000
  0.3784776399999998  0.8715223600000002  0.7500000000000000
  0.8784776399999998  0.8715223600000002  0.7500000000000000
  0.3715223600000002  0.1215223600000002  0.2500000000000000
  0.8715223600000002  0.1215223600000002  0.2500000000000000
  0.3715223600000002  0.6215223600000002  0.2500000000000000
  0.8715223600000002  0.6215223600000002  0.2500000000000000
  0.1284776399999998  0.3784776399999998  0.2500000000000000
  0.6284776399999998  0.3784776399999998  0.2500000000000000
  0.1284776399999998  0.8784776399999998  0.2500000000000000
  0.6284776399999998  0.8784776399999998  0.2500000000000000
  0.1215223600000002  0.1284776399999998  0.7500000000000000
  0.6215223600000002  0.1284776399999998  0.7500000000000000
  0.1215223600000002  0.6284776399999998  0.7500000000000000
  0.6215223600000002  0.6284776399999998  0.7500000000000000
  0.2415017900000009  0.1240282950000022  0.6405901899999975
  0.7415017900000009  0.1240282950000022  0.6405901899999975
  0.2415017900000009  0.6240282950000022  0.6405901899999975
  0.7415017900000009  0.6240282950000022  0.6405901899999975
  0.1240282950000022  0.2584982099999991  0.3594098100000025
  0.6240282950000022  0.2584982099999991  0.3594098100000025
  0.1240282950000022  0.7584982099999991  0.3594098100000025
  0.6240282950000022  0.7584982099999991  0.3594098100000025
  0.3740282950000022  0.4915017900000009  0.8594098100000025
  0.8740282950000022  0.4915017900000009  0.8594098100000025
  0.3740282950000022  0.9915017900000009  0.8594098100000025
  0.8740282950000022  0.9915017900000009  0.8594098100000025
  0.1259717049999978  0.0084982099999991  0.8594098100000025
  0.6259717049999978  0.0084982099999991  0.8594098100000025
  0.1259717049999978  0.5084982099999991  0.8594098100000025
  0.6259717049999978  0.5084982099999991  0.8594098100000025
  0.0084982099999991  0.3740282950000022  0.1405901899999975
  0.5084982099999991  0.3740282950000022  0.1405901899999975
  0.0084982099999991  0.8740282950000022  0.1405901899999975
  0.5084982099999991  0.8740282950000022  0.1405901899999975
  0.4915017900000009  0.1259717049999978  0.1405901899999975
  0.9915017900000009  0.1259717049999978  0.1405901899999975
  0.4915017900000009  0.6259717049999978  0.1405901899999975
  0.9915017900000009  0.6259717049999978  0.1405901899999975
  0.4853288199999994  0.3833944650000021  0.6231477199999986
  0.9853288199999994  0.3833944650000021  0.6231477199999986
  0.4853288199999994  0.8833944650000021  0.6231477199999986
  0.9853288199999994  0.8833944650000021  0.6231477199999986
  0.3833944650000021  0.0146711800000006  0.3768522800000014
  0.8833944650000021  0.0146711800000006  0.3768522800000014
  0.3833944650000021  0.5146711800000006  0.3768522800000014
  0.8833944650000021  0.5146711800000006  0.3768522800000014
  0.1166055349999979  0.4853288199999994  0.3768522800000014
  0.6166055349999979  0.4853288199999994  0.3768522800000014
  0.1166055349999979  0.9853288199999994  0.3768522800000014
  0.6166055349999979  0.9853288199999994  0.3768522800000014
  0.0146711800000006  0.1166055349999979  0.6231477199999986
  0.5146711800000006  0.1166055349999979  0.6231477199999986
  0.0146711800000006  0.6166055349999979  0.6231477199999986
  0.5146711800000006  0.6166055349999979  0.6231477199999986
  0.3666055349999979  0.2646711800000006  0.8768522800000014
  0.8666055349999979  0.2646711800000006  0.8768522800000014
  0.3666055349999979  0.7646711800000006  0.8768522800000014
  0.8666055349999979  0.7646711800000006  0.8768522800000014
  0.1333944650000021  0.2353288199999994  0.8768522800000014
  0.6333944650000021  0.2353288199999994  0.8768522800000014
  0.1333944650000021  0.7353288199999994  0.8768522800000014
  0.6333944650000021  0.7353288199999994  0.8768522800000014
  0.2353288199999994  0.3666055349999979  0.1231477199999986
  0.7353288199999994  0.3666055349999979  0.1231477199999986
  0.2353288199999994  0.8666055349999979  0.1231477199999986
  0.7353288199999994  0.8666055349999979  0.1231477199999986
  0.2646711800000006  0.1333944650000021  0.1231477199999986
  0.7646711800000006  0.1333944650000021  0.1231477199999986
  0.2646711800000006  0.6333944650000021  0.1231477199999986
  0.7646711800000006  0.6333944650000021  0.1231477199999986
  0.2584982099999991  0.3759717049999978  0.6405901899999975
  0.7584982099999991  0.3759717049999978  0.6405901899999975
  0.2584982099999991  0.8759717049999978  0.6405901899999975
  0.7584982099999991  0.8759717049999978  0.6405901899999975
  0.3759717049999978  0.2415017900000009  0.3594098100000025
  0.8759717049999978  0.2415017900000009  0.3594098100000025
  0.3759717049999978  0.7415017900000009  0.3594098100000025
  0.8759717049999978  0.7415017900000009  0.3594098100000025
  0.0000000000000000  0.2500000000000000  0.9851093300000002
  0.5000000000000000  0.2500000000000000  0.9851093300000002
  0.0000000000000000  0.7500000000000000  0.9851093300000002
  0.5000000000000000  0.7500000000000000  0.9851093300000002
  0.2500000000000000  0.0000000000000000  0.0148906699999998
  0.7500000000000000  0.0000000000000000  0.0148906699999998
  0.2500000000000000  0.5000000000000000  0.0148906699999998
  0.7500000000000000  0.5000000000000000  0.0148906699999998
  0.0000000000000000  0.2500000000000000  0.5148906699999998
  0.5000000000000000  0.2500000000000000  0.5148906699999998
  0.0000000000000000  0.7500000000000000  0.5148906699999998
  0.5000000000000000  0.7500000000000000  0.5148906699999998
  0.2500000000000000  0.0000000000000000  0.4851093300000002
  0.7500000000000000  0.0000000000000000  0.4851093300000002
  0.2500000000000000  0.5000000000000000  0.4851093300000002
  0.7500000000000000  0.5000000000000000  0.4851093300000002
  0.2500000000000000  0.2500000000000000  0.5000000000000000
  0.7500000000000000  0.2500000000000000  0.5000000000000000
  0.2500000000000000  0.7500000000000000  0.5000000000000000
  0.7500000000000000  0.7500000000000000  0.5000000000000000
  0.0000000000000000  0.0000000000000000  0.0000000000000000
  0.5000000000000000  0.0000000000000000  0.0000000000000000
  0.0000000000000000  0.5000000000000000  0.0000000000000000
  0.5000000000000000  0.5000000000000000  0.0000000000000000

  0.00000000E+00  0.00000000E+00  0.00000000E+00
  0.00000000E+00  0.00000000E+00  0.00000000E+00
  0.00000000E+00  0.00000000E+00  0.00000000E+00
  0.00000000E+00  0.00000000E+00  0.00000000E+00
  0.00000000E+00  0.00000000E+00  0.00000000E+00
  0.00000000E+00  0.00000000E+00  0.00000000E+00
  0.00000000E+00  0.00000000E+00  0.00000000E+00
  0.00000000E+00  0.00000000E+00  0.00000000E+00
  0.00000000E+00  0.00000000E+00  0.00000000E+00
  0.00000000E+00  0.00000000E+00  0.00000000E+00
  0.00000000E+00  0.00000000E+00  0.00000000E+00
  0.00000000E+00  0.00000000E+00  0.00000000E+00
  0.00000000E+00  0.00000000E+00  0.00000000E+00
  0.00000000E+00  0.00000000E+00  0.00000000E+00
  0.00000000E+00  0.00000000E+00  0.00000000E+00
  0.00000000E+00  0.00000000E+00  0.00000000E+00
  0.00000000E+00  0.00000000E+00  0.00000000E+00
  0.00000000E+00  0.00000000E+00  0.00000000E+00
  0.00000000E+00  0.00000000E+00  0.00000000E+00
  0.00000000E+00  0.00000000E+00  0.00000000E+00
  0.00000000E+00  0.00000000E+00  0.00000000E+00
  0.00000000E+00  0.00000000E+00  0.00000000E+00
  0.00000000E+00  0.00000000E+00  0.00000000E+00
  0.00000000E+00  0.00000000E+00  0.00000000E+00
  0.00000000E+00  0.00000000E+00  0.00000000E+00
  0.00000000E+00  0.00000000E+00  0.00000000E+00
  0.00000000E+00  0.00000000E+00  0.00000000E+00
  0.00000000E+00  0.00000000E+00  0.00000000E+00
  0.00000000E+00  0.00000000E+00  0.00000000E+00
  0.00000000E+00  0.00000000E+00  0.00000000E+00
  0.00000000E+00  0.00000000E+00  0.00000000E+00
  0.00000000E+00  0.00000000E+00  0.00000000E+00
  0.00000000E+00  0.00000000E+00  0.00000000E+00
  0.00000000E+00  0.00000000E+00  0.00000000E+00
  0.00000000E+00  0.00000000E+00  0.00000000E+00
  0.00000000E+00  0.00000000E+00  0.00000000E+00
  0.00000000E+00  0.00000000E+00  0.00000000E+00
  0.00000000E+00  0.00000000E+00  0.00000000E+00
  0.00000000E+00  0.00000000E+00  0.00000000E+00
  0.00000000E+00  0.00000000E+00  0.00000000E+00
  0.00000000E+00  0.00000000E+00  0.00000000E+00
  0.00000000E+00  0.00000000E+00  0.00000000E+00
  0.00000000E+00  0.00000000E+00  0.00000000E+00
  0.00000000E+00  0.00000000E+00  0.00000000E+00
  0.00000000E+00  0.00000000E+00  0.00000000E+00
  0.00000000E+00  0.00000000E+00  0.00000000E+00
  0.00000000E+00  0.00000000E+00  0.00000000E+00
  0.00000000E+00  0.00000000E+00  0.00000000E+00
  0.00000000E+00  0.00000000E+00  0.00000000E+00
  0.00000000E+00  0.00000000E+00  0.00000000E+00
  0.00000000E+00  0.00000000E+00  0.00000000E+00
  0.00000000E+00  0.00000000E+00  0.00000000E+00
  0.00000000E+00  0.00000000E+00  0.00000000E+00
  0.00000000E+00  0.00000000E+00  0.00000000E+00
  0.00000000E+00  0.00000000E+00  0.00000000E+00
  0.00000000E+00  0.00000000E+00  0.00000000E+00
  0.00000000E+00  0.00000000E+00  0.00000000E+00
  0.00000000E+00  0.00000000E+00  0.00000000E+00
  0.00000000E+00  0.00000000E+00  0.00000000E+00
  0.00000000E+00  0.00000000E+00  0.00000000E+00
  0.00000000E+00  0.00000000E+00  0.00000000E+00
  0.00000000E+00  0.00000000E+00  0.00000000E+00
  0.00000000E+00  0.00000000E+00  0.00000000E+00
  0.00000000E+00  0.00000000E+00  0.00000000E+00
  0.00000000E+00  0.00000000E+00  0.00000000E+00
  0.00000000E+00  0.00000000E+00  0.00000000E+00
  0.00000000E+00  0.00000000E+00  0.00000000E+00
  0.00000000E+00  0.00000000E+00  0.00000000E+00
  0.00000000E+00  0.00000000E+00  0.00000000E+00
  0.00000000E+00  0.00000000E+00  0.00000000E+00
  0.00000000E+00  0.00000000E+00  0.00000000E+00
  0.00000000E+00  0.00000000E+00  0.00000000E+00
  0.00000000E+00  0.00000000E+00  0.00000000E+00
  0.00000000E+00  0.00000000E+00  0.00000000E+00
  0.00000000E+00  0.00000000E+00  0.00000000E+00
  0.00000000E+00  0.00000000E+00  0.00000000E+00
  0.00000000E+00  0.00000000E+00  0.00000000E+00
  0.00000000E+00  0.00000000E+00  0.00000000E+00
  0.00000000E+00  0.00000000E+00  0.00000000E+00
  0.00000000E+00  0.00000000E+00  0.00000000E+00
  0.00000000E+00  0.00000000E+00  0.00000000E+00
  0.00000000E+00  0.00000000E+00  0.00000000E+00
  0.00000000E+00  0.00000000E+00  0.00000000E+00
  0.00000000E+00  0.00000000E+00  0.00000000E+00
  0.00000000E+00  0.00000000E+00  0.00000000E+00
  0.00000000E+00  0.00000000E+00  0.00000000E+00
  0.00000000E+00  0.00000000E+00  0.00000000E+00
  0.00000000E+00  0.00000000E+00  0.00000000E+00
  0.00000000E+00  0.00000000E+00  0.00000000E+00
  0.00000000E+00  0.00000000E+00  0.00000000E+00
  0.00000000E+00  0.00000000E+00  0.00000000E+00
  0.00000000E+00  0.00000000E+00  0.00000000E+00
  0.00000000E+00  0.00000000E+00  0.00000000E+00
  0.00000000E+00  0.00000000E+00  0.00000000E+00
  0.00000000E+00  0.00000000E+00  0.00000000E+00
  0.00000000E+00  0.00000000E+00  0.00000000E+00
  0.00000000E+00  0.00000000E+00  0.00000000E+00
  0.00000000E+00  0.00000000E+00  0.00000000E+00
  0.00000000E+00  0.00000000E+00  0.00000000E+00
  0.00000000E+00  0.00000000E+00  0.00000000E+00
  0.00000000E+00  0.00000000E+00  0.00000000E+00
  0.00000000E+00  0.00000000E+00  0.00000000E+00
  0.00000000E+00  0.00000000E+00  0.00000000E+00
  0.00000000E+00  0.00000000E+00  0.00000000E+00
